fcc
1.0
0.0 0.5 0.5
0.5 0.0 0.5
0.5 0.5 0.0
Li
1
direct
  0.0  0.0  0.0  Li
