Li864 Co864
1.0
30.410226 0.000000 17.061864
-10.418746 28.569735 -17.061917
0.000000 0.000000 35.631900
Li Co
864 864
direct
0.583410 0.500071 0.583313 Li
0.583410 0.500071 0.916646 Li
0.583410 0.500071 0.249980 Li
0.583410 0.833405 0.583313 Li
0.583410 0.833405 0.916646 Li
0.583410 0.833405 0.249980 Li
0.583410 0.166738 0.583313 Li
0.583410 0.166738 0.916646 Li
0.583410 0.166738 0.249980 Li
0.916743 0.500071 0.583313 Li
0.916743 0.500071 0.916646 Li
0.916743 0.500071 0.249980 Li
0.916743 0.833405 0.583313 Li
0.916743 0.833405 0.916646 Li
0.916743 0.833405 0.249980 Li
0.916743 0.166738 0.583313 Li
0.916743 0.166738 0.916646 Li
0.916743 0.166738 0.249980 Li
0.250076 0.500071 0.583313 Li
0.250076 0.500071 0.916646 Li
0.250076 0.500071 0.249980 Li
0.250076 0.833405 0.583313 Li
0.250076 0.833405 0.916646 Li
0.250076 0.833405 0.249980 Li
0.250076 0.166738 0.583313 Li
0.250076 0.166738 0.916646 Li
0.250076 0.166738 0.249980 Li
0.583410 0.500071 0.416646 Li
0.583410 0.500071 0.749980 Li
0.583410 0.500071 0.083313 Li
0.583410 0.833405 0.416646 Li
0.583410 0.833405 0.749980 Li
0.583410 0.833405 0.083313 Li
0.583410 0.166738 0.416646 Li
0.583410 0.166738 0.749980 Li
0.583410 0.166738 0.083313 Li
0.916743 0.500071 0.416646 Li
0.916743 0.500071 0.749980 Li
0.916743 0.500071 0.083313 Li
0.916743 0.833405 0.416646 Li
0.916743 0.833405 0.749980 Li
0.916743 0.833405 0.083313 Li
0.916743 0.166738 0.416646 Li
0.916743 0.166738 0.749980 Li
0.916743 0.166738 0.083313 Li
0.250076 0.500071 0.416646 Li
0.250076 0.500071 0.749980 Li
0.250076 0.500071 0.083313 Li
0.250076 0.833405 0.416646 Li
0.250076 0.833405 0.749980 Li
0.250076 0.833405 0.083313 Li
0.250076 0.166738 0.416646 Li
0.250076 0.166738 0.749980 Li
0.250076 0.166738 0.083313 Li
0.583409 0.333405 0.583313 Li
0.583409 0.333405 0.916646 Li
0.583409 0.333405 0.249980 Li
0.583409 0.666738 0.583313 Li
0.583409 0.666738 0.916646 Li
0.583409 0.666738 0.249980 Li
0.583409 0.000071 0.583313 Li
0.583409 0.000071 0.916646 Li
0.583409 0.000071 0.249980 Li
0.916743 0.333405 0.583313 Li
0.916743 0.333405 0.916646 Li
0.916743 0.333405 0.249980 Li
0.916743 0.666738 0.583313 Li
0.916743 0.666738 0.916646 Li
0.916743 0.666738 0.249980 Li
0.916743 0.000071 0.583313 Li
0.916743 0.000071 0.916646 Li
0.916743 0.000071 0.249980 Li
0.250076 0.333405 0.583313 Li
0.250076 0.333405 0.916646 Li
0.250076 0.333405 0.249980 Li
0.250076 0.666738 0.583313 Li
0.250076 0.666738 0.916646 Li
0.250076 0.666738 0.249980 Li
0.250076 0.000071 0.583313 Li
0.250076 0.000071 0.916646 Li
0.250076 0.000071 0.249980 Li
0.583409 0.333405 0.416646 Li
0.583409 0.333405 0.749980 Li
0.583409 0.333405 0.083313 Li
0.583409 0.666738 0.416646 Li
0.583409 0.666738 0.749980 Li
0.583409 0.666738 0.083313 Li
0.583409 0.000071 0.416646 Li
0.583409 0.000071 0.749980 Li
0.583409 0.000071 0.083313 Li
0.916743 0.333405 0.416646 Li
0.916743 0.333405 0.749980 Li
0.916743 0.333405 0.083313 Li
0.916743 0.666738 0.416646 Li
0.916743 0.666738 0.749980 Li
0.916743 0.666738 0.083313 Li
0.916743 0.000071 0.416646 Li
0.916743 0.000071 0.749980 Li
0.916743 0.000071 0.083313 Li
0.250076 0.333405 0.416646 Li
0.250076 0.333405 0.749980 Li
0.250076 0.333405 0.083313 Li
0.250076 0.666738 0.416646 Li
0.250076 0.666738 0.749980 Li
0.250076 0.666738 0.083313 Li
0.250076 0.000071 0.416646 Li
0.250076 0.000071 0.749980 Li
0.250076 0.000071 0.083313 Li
0.416743 0.500071 0.583313 Li
0.416743 0.500071 0.916646 Li
0.416743 0.500071 0.249980 Li
0.416743 0.833405 0.583313 Li
0.416743 0.833405 0.916646 Li
0.416743 0.833405 0.249980 Li
0.416743 0.166738 0.583313 Li
0.416743 0.166738 0.916646 Li
0.416743 0.166738 0.249980 Li
0.750076 0.500071 0.583313 Li
0.750076 0.500071 0.916646 Li
0.750076 0.500071 0.249980 Li
0.750076 0.833405 0.583313 Li
0.750076 0.833405 0.916646 Li
0.750076 0.833405 0.249980 Li
0.750076 0.166738 0.583313 Li
0.750076 0.166738 0.916646 Li
0.750076 0.166738 0.249980 Li
0.083410 0.500071 0.583313 Li
0.083410 0.500071 0.916646 Li
0.083410 0.500071 0.249980 Li
0.083410 0.833405 0.583313 Li
0.083410 0.833405 0.916646 Li
0.083410 0.833405 0.249980 Li
0.083410 0.166738 0.583313 Li
0.083410 0.166738 0.916646 Li
0.083410 0.166738 0.249980 Li
0.416743 0.500071 0.416646 Li
0.416743 0.500071 0.749980 Li
0.416743 0.500071 0.083313 Li
0.416743 0.833405 0.416646 Li
0.416743 0.833405 0.749980 Li
0.416743 0.833405 0.083313 Li
0.416743 0.166738 0.416646 Li
0.416743 0.166738 0.749980 Li
0.416743 0.166738 0.083313 Li
0.750076 0.500071 0.416646 Li
0.750076 0.500071 0.749980 Li
0.750076 0.500071 0.083313 Li
0.750076 0.833405 0.416646 Li
0.750076 0.833405 0.749980 Li
0.750076 0.833405 0.083313 Li
0.750076 0.166738 0.416646 Li
0.750076 0.166738 0.749980 Li
0.750076 0.166738 0.083313 Li
0.083410 0.500071 0.416646 Li
0.083410 0.500071 0.749980 Li
0.083410 0.500071 0.083313 Li
0.083410 0.833405 0.416646 Li
0.083410 0.833405 0.749980 Li
0.083410 0.833405 0.083313 Li
0.083410 0.166738 0.416646 Li
0.083410 0.166738 0.749980 Li
0.083410 0.166738 0.083313 Li
0.416743 0.333405 0.583313 Li
0.416743 0.333405 0.916646 Li
0.416743 0.333405 0.249980 Li
0.416743 0.666738 0.583313 Li
0.416743 0.666738 0.916646 Li
0.416743 0.666738 0.249980 Li
0.416743 0.000071 0.583313 Li
0.416743 0.000071 0.916646 Li
0.416743 0.000071 0.249980 Li
0.750076 0.333405 0.583313 Li
0.750076 0.333405 0.916646 Li
0.750076 0.333405 0.249980 Li
0.750076 0.666738 0.583313 Li
0.750076 0.666738 0.916646 Li
0.750076 0.666738 0.249980 Li
0.750076 0.000071 0.583313 Li
0.750076 0.000071 0.916646 Li
0.750076 0.000071 0.249980 Li
0.083410 0.333405 0.583313 Li
0.083410 0.333405 0.916646 Li
0.083410 0.333405 0.249980 Li
0.083410 0.666738 0.583313 Li
0.083410 0.666738 0.916646 Li
0.083410 0.666738 0.249980 Li
0.083410 0.000071 0.583313 Li
0.083410 0.000071 0.916646 Li
0.083410 0.000071 0.249980 Li
0.416743 0.333405 0.416646 Li
0.416743 0.333405 0.749980 Li
0.416743 0.333405 0.083313 Li
0.416743 0.666738 0.416646 Li
0.416743 0.666738 0.749980 Li
0.416743 0.666738 0.083313 Li
0.416743 0.000071 0.416646 Li
0.416743 0.000071 0.749980 Li
0.416743 0.000071 0.083313 Li
0.750076 0.333405 0.416646 Li
0.750076 0.333405 0.749980 Li
0.750076 0.333405 0.083313 Li
0.750076 0.666738 0.416646 Li
0.750076 0.666738 0.749980 Li
0.750076 0.666738 0.083313 Li
0.750076 0.000071 0.416646 Li
0.750076 0.000071 0.749980 Li
0.750076 0.000071 0.083313 Li
0.083410 0.333405 0.416646 Li
0.083410 0.333405 0.749980 Li
0.083410 0.333405 0.083313 Li
0.083410 0.666738 0.416646 Li
0.083410 0.666738 0.749980 Li
0.083410 0.666738 0.083313 Li
0.083410 0.000071 0.416646 Li
0.083410 0.000071 0.749980 Li
0.083410 0.000071 0.083313 Li
0.666637 0.583316 0.583451 Li
0.666637 0.583316 0.916785 Li
0.666637 0.583316 0.250118 Li
0.666637 0.916650 0.583451 Li
0.666637 0.916650 0.916785 Li
0.666637 0.916650 0.250118 Li
0.666637 0.249983 0.583451 Li
0.666637 0.249983 0.916785 Li
0.666637 0.249983 0.250118 Li
0.999970 0.583316 0.583451 Li
0.999970 0.583316 0.916785 Li
0.999970 0.583316 0.250118 Li
0.999970 0.916650 0.583451 Li
0.999970 0.916650 0.916785 Li
0.999970 0.916650 0.250118 Li
0.999970 0.249983 0.583451 Li
0.999970 0.249983 0.916785 Li
0.999970 0.249983 0.250118 Li
0.333303 0.583316 0.583451 Li
0.333303 0.583316 0.916785 Li
0.333303 0.583316 0.250118 Li
0.333303 0.916650 0.583451 Li
0.333303 0.916650 0.916785 Li
0.333303 0.916650 0.250118 Li
0.333303 0.249983 0.583451 Li
0.333303 0.249983 0.916785 Li
0.333303 0.249983 0.250118 Li
0.666637 0.583316 0.416785 Li
0.666637 0.583316 0.750118 Li
0.666637 0.583316 0.083451 Li
0.666637 0.916650 0.416785 Li
0.666637 0.916650 0.750118 Li
0.666637 0.916650 0.083451 Li
0.666637 0.249983 0.416785 Li
0.666637 0.249983 0.750118 Li
0.666637 0.249983 0.083451 Li
0.999970 0.583316 0.416785 Li
0.999970 0.583316 0.750118 Li
0.999970 0.583316 0.083451 Li
0.999970 0.916650 0.416785 Li
0.999970 0.916650 0.750118 Li
0.999970 0.916650 0.083451 Li
0.999970 0.249983 0.416785 Li
0.999970 0.249983 0.750118 Li
0.999970 0.249983 0.083451 Li
0.333303 0.583316 0.416785 Li
0.333303 0.583316 0.750118 Li
0.333303 0.583316 0.083451 Li
0.333303 0.916650 0.416785 Li
0.333303 0.916650 0.750118 Li
0.333303 0.916650 0.083451 Li
0.333303 0.249983 0.416785 Li
0.333303 0.249983 0.750118 Li
0.333303 0.249983 0.083451 Li
0.666637 0.416650 0.583451 Li
0.666637 0.416650 0.916784 Li
0.666637 0.416650 0.250118 Li
0.666637 0.749983 0.583451 Li
0.666637 0.749983 0.916784 Li
0.666637 0.749983 0.250118 Li
0.666637 0.083316 0.583451 Li
0.666637 0.083316 0.916784 Li
0.666637 0.083316 0.250118 Li
0.999970 0.416650 0.583451 Li
0.999970 0.416650 0.916784 Li
0.999970 0.416650 0.250118 Li
0.999970 0.749983 0.583451 Li
0.999970 0.749983 0.916784 Li
0.999970 0.749983 0.250118 Li
0.999970 0.083316 0.583451 Li
0.999970 0.083316 0.916784 Li
0.999970 0.083316 0.250118 Li
0.333303 0.416650 0.583451 Li
0.333303 0.416650 0.916784 Li
0.333303 0.416650 0.250118 Li
0.333303 0.749983 0.583451 Li
0.333303 0.749983 0.916784 Li
0.333303 0.749983 0.250118 Li
0.333303 0.083316 0.583451 Li
0.333303 0.083316 0.916784 Li
0.333303 0.083316 0.250118 Li
0.666637 0.416650 0.416785 Li
0.666637 0.416650 0.750118 Li
0.666637 0.416650 0.083451 Li
0.666637 0.749983 0.416785 Li
0.666637 0.749983 0.750118 Li
0.666637 0.749983 0.083451 Li
0.666637 0.083316 0.416785 Li
0.666637 0.083316 0.750118 Li
0.666637 0.083316 0.083451 Li
0.999970 0.416650 0.416785 Li
0.999970 0.416650 0.750118 Li
0.999970 0.416650 0.083451 Li
0.999970 0.749983 0.416785 Li
0.999970 0.749983 0.750118 Li
0.999970 0.749983 0.083451 Li
0.999970 0.083316 0.416785 Li
0.999970 0.083316 0.750118 Li
0.999970 0.083316 0.083451 Li
0.333303 0.416650 0.416785 Li
0.333303 0.416650 0.750118 Li
0.333303 0.416650 0.083451 Li
0.333303 0.749983 0.416785 Li
0.333303 0.749983 0.750118 Li
0.333303 0.749983 0.083451 Li
0.333303 0.083316 0.416785 Li
0.333303 0.083316 0.750118 Li
0.333303 0.083316 0.083451 Li
0.499970 0.583316 0.583451 Li
0.499970 0.583316 0.916785 Li
0.499970 0.583316 0.250118 Li
0.499970 0.916650 0.583451 Li
0.499970 0.916650 0.916785 Li
0.499970 0.916650 0.250118 Li
0.499970 0.249983 0.583451 Li
0.499970 0.249983 0.916785 Li
0.499970 0.249983 0.250118 Li
0.833303 0.583316 0.583451 Li
0.833303 0.583316 0.916785 Li
0.833303 0.583316 0.250118 Li
0.833303 0.916650 0.583451 Li
0.833303 0.916650 0.916785 Li
0.833303 0.916650 0.250118 Li
0.833303 0.249983 0.583451 Li
0.833303 0.249983 0.916785 Li
0.833303 0.249983 0.250118 Li
0.166637 0.583316 0.583451 Li
0.166637 0.583316 0.916785 Li
0.166637 0.583316 0.250118 Li
0.166637 0.916650 0.583451 Li
0.166637 0.916650 0.916785 Li
0.166637 0.916650 0.250118 Li
0.166637 0.249983 0.583451 Li
0.166637 0.249983 0.916785 Li
0.166637 0.249983 0.250118 Li
0.499970 0.583316 0.416785 Li
0.499970 0.583316 0.750118 Li
0.499970 0.583316 0.083451 Li
0.499970 0.916650 0.416785 Li
0.499970 0.916650 0.750118 Li
0.499970 0.916650 0.083451 Li
0.499970 0.249983 0.416785 Li
0.499970 0.249983 0.750118 Li
0.499970 0.249983 0.083451 Li
0.833303 0.583316 0.416785 Li
0.833303 0.583316 0.750118 Li
0.833303 0.583316 0.083451 Li
0.833303 0.916650 0.416785 Li
0.833303 0.916650 0.750118 Li
0.833303 0.916650 0.083451 Li
0.833303 0.249983 0.416785 Li
0.833303 0.249983 0.750118 Li
0.833303 0.249983 0.083451 Li
0.166637 0.583316 0.416785 Li
0.166637 0.583316 0.750118 Li
0.166637 0.583316 0.083451 Li
0.166637 0.916650 0.416785 Li
0.166637 0.916650 0.750118 Li
0.166637 0.916650 0.083451 Li
0.166637 0.249983 0.416785 Li
0.166637 0.249983 0.750118 Li
0.166637 0.249983 0.083451 Li
0.499970 0.416650 0.583451 Li
0.499970 0.416650 0.916785 Li
0.499970 0.416650 0.250118 Li
0.499970 0.749983 0.583451 Li
0.499970 0.749983 0.916785 Li
0.499970 0.749983 0.250118 Li
0.499970 0.083316 0.583451 Li
0.499970 0.083316 0.916785 Li
0.499970 0.083316 0.250118 Li
0.833303 0.416650 0.583451 Li
0.833303 0.416650 0.916785 Li
0.833303 0.416650 0.250118 Li
0.833303 0.749983 0.583451 Li
0.833303 0.749983 0.916785 Li
0.833303 0.749983 0.250118 Li
0.833303 0.083316 0.583451 Li
0.833303 0.083316 0.916785 Li
0.833303 0.083316 0.250118 Li
0.166636 0.416650 0.583451 Li
0.166636 0.416650 0.916785 Li
0.166636 0.416650 0.250118 Li
0.166636 0.749983 0.583451 Li
0.166636 0.749983 0.916785 Li
0.166636 0.749983 0.250118 Li
0.166636 0.083316 0.583451 Li
0.166636 0.083316 0.916785 Li
0.166636 0.083316 0.250118 Li
0.499970 0.416650 0.416785 Li
0.499970 0.416650 0.750118 Li
0.499970 0.416650 0.083451 Li
0.499970 0.749983 0.416785 Li
0.499970 0.749983 0.750118 Li
0.499970 0.749983 0.083451 Li
0.499970 0.083316 0.416785 Li
0.499970 0.083316 0.750118 Li
0.499970 0.083316 0.083451 Li
0.833303 0.416650 0.416785 Li
0.833303 0.416650 0.750118 Li
0.833303 0.416650 0.083451 Li
0.833303 0.749983 0.416785 Li
0.833303 0.749983 0.750118 Li
0.833303 0.749983 0.083451 Li
0.833303 0.083316 0.416785 Li
0.833303 0.083316 0.750118 Li
0.833303 0.083316 0.083451 Li
0.166636 0.416650 0.416785 Li
0.166636 0.416650 0.750118 Li
0.166636 0.416650 0.083451 Li
0.166636 0.749983 0.416785 Li
0.166636 0.749983 0.750118 Li
0.166636 0.749983 0.083451 Li
0.166636 0.083316 0.416785 Li
0.166636 0.083316 0.750118 Li
0.166636 0.083316 0.083451 Li
0.583157 0.583457 0.500286 Li
0.583157 0.583457 0.833620 Li
0.583157 0.583457 0.166953 Li
0.583157 0.916791 0.500286 Li
0.583157 0.916791 0.833620 Li
0.583157 0.916791 0.166953 Li
0.583157 0.250124 0.500286 Li
0.583157 0.250124 0.833620 Li
0.583157 0.250124 0.166953 Li
0.916491 0.583457 0.500286 Li
0.916491 0.583457 0.833620 Li
0.916491 0.583457 0.166953 Li
0.916491 0.916791 0.500286 Li
0.916491 0.916791 0.833620 Li
0.916491 0.916791 0.166953 Li
0.916491 0.250124 0.500286 Li
0.916491 0.250124 0.833620 Li
0.916491 0.250124 0.166953 Li
0.249824 0.583457 0.500286 Li
0.249824 0.583457 0.833620 Li
0.249824 0.583457 0.166953 Li
0.249824 0.916791 0.500286 Li
0.249824 0.916791 0.833620 Li
0.249824 0.916791 0.166953 Li
0.249824 0.250124 0.500286 Li
0.249824 0.250124 0.833620 Li
0.249824 0.250124 0.166953 Li
0.583157 0.583457 0.333620 Li
0.583157 0.583457 0.666953 Li
0.583157 0.583457 0.000286 Li
0.583157 0.916791 0.333620 Li
0.583157 0.916791 0.666953 Li
0.583157 0.916791 0.000286 Li
0.583157 0.250124 0.333620 Li
0.583157 0.250124 0.666953 Li
0.583157 0.250124 0.000286 Li
0.916491 0.583457 0.333620 Li
0.916491 0.583457 0.666953 Li
0.916491 0.583457 0.000286 Li
0.916491 0.916791 0.333620 Li
0.916491 0.916791 0.666953 Li
0.916491 0.916791 0.000286 Li
0.916491 0.250124 0.333620 Li
0.916491 0.250124 0.666953 Li
0.916491 0.250124 0.000286 Li
0.249824 0.583457 0.333620 Li
0.249824 0.583457 0.666953 Li
0.249824 0.583457 0.000286 Li
0.249824 0.916791 0.333620 Li
0.249824 0.916791 0.666953 Li
0.249824 0.916791 0.000286 Li
0.249824 0.250124 0.333620 Li
0.249824 0.250124 0.666953 Li
0.249824 0.250124 0.000286 Li
0.583157 0.416791 0.500286 Li
0.583157 0.416791 0.833620 Li
0.583157 0.416791 0.166953 Li
0.583157 0.750124 0.500286 Li
0.583157 0.750124 0.833620 Li
0.583157 0.750124 0.166953 Li
0.583157 0.083457 0.500286 Li
0.583157 0.083457 0.833620 Li
0.583157 0.083457 0.166953 Li
0.916491 0.416791 0.500286 Li
0.916491 0.416791 0.833620 Li
0.916491 0.416791 0.166953 Li
0.916491 0.750124 0.500286 Li
0.916491 0.750124 0.833620 Li
0.916491 0.750124 0.166953 Li
0.916491 0.083457 0.500286 Li
0.916491 0.083457 0.833620 Li
0.916491 0.083457 0.166953 Li
0.249824 0.416791 0.500286 Li
0.249824 0.416791 0.833620 Li
0.249824 0.416791 0.166953 Li
0.249824 0.750124 0.500286 Li
0.249824 0.750124 0.833620 Li
0.249824 0.750124 0.166953 Li
0.249824 0.083457 0.500286 Li
0.249824 0.083457 0.833620 Li
0.249824 0.083457 0.166953 Li
0.583157 0.416791 0.333619 Li
0.583157 0.416791 0.666953 Li
0.583157 0.416791 0.000286 Li
0.583157 0.750124 0.333619 Li
0.583157 0.750124 0.666953 Li
0.583157 0.750124 0.000286 Li
0.583157 0.083457 0.333619 Li
0.583157 0.083457 0.666953 Li
0.583157 0.083457 0.000286 Li
0.916491 0.416791 0.333619 Li
0.916491 0.416791 0.666953 Li
0.916491 0.416791 0.000286 Li
0.916491 0.750124 0.333619 Li
0.916491 0.750124 0.666953 Li
0.916491 0.750124 0.000286 Li
0.916491 0.083457 0.333619 Li
0.916491 0.083457 0.666953 Li
0.916491 0.083457 0.000286 Li
0.249824 0.416791 0.333619 Li
0.249824 0.416791 0.666953 Li
0.249824 0.416791 0.000286 Li
0.249824 0.750124 0.333619 Li
0.249824 0.750124 0.666953 Li
0.249824 0.750124 0.000286 Li
0.249824 0.083457 0.333619 Li
0.249824 0.083457 0.666953 Li
0.249824 0.083457 0.000286 Li
0.416491 0.583457 0.500286 Li
0.416491 0.583457 0.833620 Li
0.416491 0.583457 0.166953 Li
0.416491 0.916791 0.500286 Li
0.416491 0.916791 0.833620 Li
0.416491 0.916791 0.166953 Li
0.416491 0.250124 0.500286 Li
0.416491 0.250124 0.833620 Li
0.416491 0.250124 0.166953 Li
0.749824 0.583457 0.500286 Li
0.749824 0.583457 0.833620 Li
0.749824 0.583457 0.166953 Li
0.749824 0.916791 0.500286 Li
0.749824 0.916791 0.833620 Li
0.749824 0.916791 0.166953 Li
0.749824 0.250124 0.500286 Li
0.749824 0.250124 0.833620 Li
0.749824 0.250124 0.166953 Li
0.083157 0.583457 0.500286 Li
0.083157 0.583457 0.833620 Li
0.083157 0.583457 0.166953 Li
0.083157 0.916791 0.500286 Li
0.083157 0.916791 0.833620 Li
0.083157 0.916791 0.166953 Li
0.083157 0.250124 0.500286 Li
0.083157 0.250124 0.833620 Li
0.083157 0.250124 0.166953 Li
0.416491 0.583457 0.333619 Li
0.416491 0.583457 0.666953 Li
0.416491 0.583457 0.000286 Li
0.416491 0.916791 0.333619 Li
0.416491 0.916791 0.666953 Li
0.416491 0.916791 0.000286 Li
0.416491 0.250124 0.333619 Li
0.416491 0.250124 0.666953 Li
0.416491 0.250124 0.000286 Li
0.749824 0.583457 0.333619 Li
0.749824 0.583457 0.666953 Li
0.749824 0.583457 0.000286 Li
0.749824 0.916791 0.333619 Li
0.749824 0.916791 0.666953 Li
0.749824 0.916791 0.000286 Li
0.749824 0.250124 0.333619 Li
0.749824 0.250124 0.666953 Li
0.749824 0.250124 0.000286 Li
0.083157 0.583457 0.333619 Li
0.083157 0.583457 0.666953 Li
0.083157 0.583457 0.000286 Li
0.083157 0.916791 0.333619 Li
0.083157 0.916791 0.666953 Li
0.083157 0.916791 0.000286 Li
0.083157 0.250124 0.333619 Li
0.083157 0.250124 0.666953 Li
0.083157 0.250124 0.000286 Li
0.416491 0.416791 0.500286 Li
0.416491 0.416791 0.833620 Li
0.416491 0.416791 0.166953 Li
0.416491 0.750124 0.500286 Li
0.416491 0.750124 0.833620 Li
0.416491 0.750124 0.166953 Li
0.416491 0.083457 0.500286 Li
0.416491 0.083457 0.833620 Li
0.416491 0.083457 0.166953 Li
0.749824 0.416791 0.500286 Li
0.749824 0.416791 0.833620 Li
0.749824 0.416791 0.166953 Li
0.749824 0.750124 0.500286 Li
0.749824 0.750124 0.833620 Li
0.749824 0.750124 0.166953 Li
0.749824 0.083457 0.500286 Li
0.749824 0.083457 0.833620 Li
0.749824 0.083457 0.166953 Li
0.083157 0.416791 0.500286 Li
0.083157 0.416791 0.833620 Li
0.083157 0.416791 0.166953 Li
0.083157 0.750124 0.500286 Li
0.083157 0.750124 0.833620 Li
0.083157 0.750124 0.166953 Li
0.083157 0.083457 0.500286 Li
0.083157 0.083457 0.833620 Li
0.083157 0.083457 0.166953 Li
0.416491 0.416791 0.333620 Li
0.416491 0.416791 0.666953 Li
0.416491 0.416791 0.000286 Li
0.416491 0.750124 0.333620 Li
0.416491 0.750124 0.666953 Li
0.416491 0.750124 0.000286 Li
0.416491 0.083457 0.333620 Li
0.416491 0.083457 0.666953 Li
0.416491 0.083457 0.000286 Li
0.749824 0.416791 0.333620 Li
0.749824 0.416791 0.666953 Li
0.749824 0.416791 0.000286 Li
0.749824 0.750124 0.333620 Li
0.749824 0.750124 0.666953 Li
0.749824 0.750124 0.000286 Li
0.749824 0.083457 0.333620 Li
0.749824 0.083457 0.666953 Li
0.749824 0.083457 0.000286 Li
0.083157 0.416791 0.333620 Li
0.083157 0.416791 0.666953 Li
0.083157 0.416791 0.000286 Li
0.083157 0.750124 0.333620 Li
0.083157 0.750124 0.666953 Li
0.083157 0.750124 0.000286 Li
0.083157 0.083457 0.333620 Li
0.083157 0.083457 0.666953 Li
0.083157 0.083457 0.000286 Li
0.583244 0.500080 0.500142 Li
0.583244 0.500080 0.833475 Li
0.583244 0.500080 0.166808 Li
0.583244 0.833413 0.500142 Li
0.583244 0.833413 0.833475 Li
0.583244 0.833413 0.166808 Li
0.583244 0.166746 0.500142 Li
0.583244 0.166746 0.833475 Li
0.583244 0.166746 0.166808 Li
0.916577 0.500080 0.500142 Li
0.916577 0.500080 0.833475 Li
0.916577 0.500080 0.166808 Li
0.916577 0.833413 0.500142 Li
0.916577 0.833413 0.833475 Li
0.916577 0.833413 0.166808 Li
0.916577 0.166746 0.500142 Li
0.916577 0.166746 0.833475 Li
0.916577 0.166746 0.166808 Li
0.249910 0.500080 0.500142 Li
0.249910 0.500080 0.833475 Li
0.249910 0.500080 0.166808 Li
0.249910 0.833413 0.500142 Li
0.249910 0.833413 0.833475 Li
0.249910 0.833413 0.166808 Li
0.249910 0.166746 0.500142 Li
0.249910 0.166746 0.833475 Li
0.249910 0.166746 0.166808 Li
0.583244 0.500080 0.333475 Li
0.583244 0.500080 0.666808 Li
0.583244 0.500080 0.000142 Li
0.583244 0.833413 0.333475 Li
0.583244 0.833413 0.666808 Li
0.583244 0.833413 0.000142 Li
0.583244 0.166746 0.333475 Li
0.583244 0.166746 0.666808 Li
0.583244 0.166746 0.000142 Li
0.916577 0.500080 0.333475 Li
0.916577 0.500080 0.666808 Li
0.916577 0.500080 0.000142 Li
0.916577 0.833413 0.333475 Li
0.916577 0.833413 0.666808 Li
0.916577 0.833413 0.000142 Li
0.916577 0.166746 0.333475 Li
0.916577 0.166746 0.666808 Li
0.916577 0.166746 0.000142 Li
0.249910 0.500080 0.333475 Li
0.249910 0.500080 0.666808 Li
0.249910 0.500080 0.000142 Li
0.249910 0.833413 0.333475 Li
0.249910 0.833413 0.666808 Li
0.249910 0.833413 0.000142 Li
0.249910 0.166746 0.333475 Li
0.249910 0.166746 0.666808 Li
0.249910 0.166746 0.000142 Li
0.583243 0.333413 0.500142 Li
0.583243 0.333413 0.833475 Li
0.583243 0.333413 0.166808 Li
0.583243 0.666746 0.500142 Li
0.583243 0.666746 0.833475 Li
0.583243 0.666746 0.166808 Li
0.583243 0.000080 0.500142 Li
0.583243 0.000080 0.833475 Li
0.583243 0.000080 0.166808 Li
0.916577 0.333413 0.500142 Li
0.916577 0.333413 0.833475 Li
0.916577 0.333413 0.166808 Li
0.916577 0.666746 0.500142 Li
0.916577 0.666746 0.833475 Li
0.916577 0.666746 0.166808 Li
0.916577 0.000080 0.500142 Li
0.916577 0.000080 0.833475 Li
0.916577 0.000080 0.166808 Li
0.249910 0.333413 0.500142 Li
0.249910 0.333413 0.833475 Li
0.249910 0.333413 0.166808 Li
0.249910 0.666746 0.500142 Li
0.249910 0.666746 0.833475 Li
0.249910 0.666746 0.166808 Li
0.249910 0.000080 0.500142 Li
0.249910 0.000080 0.833475 Li
0.249910 0.000080 0.166808 Li
0.583243 0.333413 0.333475 Li
0.583243 0.333413 0.666808 Li
0.583243 0.333413 0.000142 Li
0.583243 0.666746 0.333475 Li
0.583243 0.666746 0.666808 Li
0.583243 0.666746 0.000142 Li
0.583243 0.000080 0.333475 Li
0.583243 0.000080 0.666808 Li
0.583243 0.000080 0.000142 Li
0.916577 0.333413 0.333475 Li
0.916577 0.333413 0.666808 Li
0.916577 0.333413 0.000142 Li
0.916577 0.666746 0.333475 Li
0.916577 0.666746 0.666808 Li
0.916577 0.666746 0.000142 Li
0.916577 0.000080 0.333475 Li
0.916577 0.000080 0.666808 Li
0.916577 0.000080 0.000142 Li
0.249910 0.333413 0.333475 Li
0.249910 0.333413 0.666808 Li
0.249910 0.333413 0.000142 Li
0.249910 0.666746 0.333475 Li
0.249910 0.666746 0.666808 Li
0.249910 0.666746 0.000142 Li
0.249910 0.000080 0.333475 Li
0.249910 0.000080 0.666808 Li
0.249910 0.000080 0.000142 Li
0.416577 0.500080 0.500142 Li
0.416577 0.500080 0.833475 Li
0.416577 0.500080 0.166808 Li
0.416577 0.833413 0.500142 Li
0.416577 0.833413 0.833475 Li
0.416577 0.833413 0.166808 Li
0.416577 0.166746 0.500142 Li
0.416577 0.166746 0.833475 Li
0.416577 0.166746 0.166808 Li
0.749910 0.500080 0.500142 Li
0.749910 0.500080 0.833475 Li
0.749910 0.500080 0.166808 Li
0.749910 0.833413 0.500142 Li
0.749910 0.833413 0.833475 Li
0.749910 0.833413 0.166808 Li
0.749910 0.166746 0.500142 Li
0.749910 0.166746 0.833475 Li
0.749910 0.166746 0.166808 Li
0.083243 0.500080 0.500142 Li
0.083243 0.500080 0.833475 Li
0.083243 0.500080 0.166808 Li
0.083243 0.833413 0.500142 Li
0.083243 0.833413 0.833475 Li
0.083243 0.833413 0.166808 Li
0.083243 0.166746 0.500142 Li
0.083243 0.166746 0.833475 Li
0.083243 0.166746 0.166808 Li
0.416577 0.500080 0.333475 Li
0.416577 0.500080 0.666808 Li
0.416577 0.500080 0.000142 Li
0.416577 0.833413 0.333475 Li
0.416577 0.833413 0.666808 Li
0.416577 0.833413 0.000142 Li
0.416577 0.166746 0.333475 Li
0.416577 0.166746 0.666808 Li
0.416577 0.166746 0.000142 Li
0.749910 0.500080 0.333475 Li
0.749910 0.500080 0.666808 Li
0.749910 0.500080 0.000142 Li
0.749910 0.833413 0.333475 Li
0.749910 0.833413 0.666808 Li
0.749910 0.833413 0.000142 Li
0.749910 0.166746 0.333475 Li
0.749910 0.166746 0.666808 Li
0.749910 0.166746 0.000142 Li
0.083243 0.500080 0.333475 Li
0.083243 0.500080 0.666808 Li
0.083243 0.500080 0.000142 Li
0.083243 0.833413 0.333475 Li
0.083243 0.833413 0.666808 Li
0.083243 0.833413 0.000142 Li
0.083243 0.166746 0.333475 Li
0.083243 0.166746 0.666808 Li
0.083243 0.166746 0.000142 Li
0.416577 0.333413 0.500142 Li
0.416577 0.333413 0.833475 Li
0.416577 0.333413 0.166808 Li
0.416577 0.666746 0.500142 Li
0.416577 0.666746 0.833475 Li
0.416577 0.666746 0.166808 Li
0.416577 0.000080 0.500142 Li
0.416577 0.000080 0.833475 Li
0.416577 0.000080 0.166808 Li
0.749910 0.333413 0.500142 Li
0.749910 0.333413 0.833475 Li
0.749910 0.333413 0.166808 Li
0.749910 0.666746 0.500142 Li
0.749910 0.666746 0.833475 Li
0.749910 0.666746 0.166808 Li
0.749910 0.000080 0.500142 Li
0.749910 0.000080 0.833475 Li
0.749910 0.000080 0.166808 Li
0.083244 0.333413 0.500142 Li
0.083244 0.333413 0.833475 Li
0.083244 0.333413 0.166808 Li
0.083244 0.666746 0.500142 Li
0.083244 0.666746 0.833475 Li
0.083244 0.666746 0.166808 Li
0.083244 0.000080 0.500142 Li
0.083244 0.000080 0.833475 Li
0.083244 0.000080 0.166808 Li
0.416577 0.333413 0.333475 Li
0.416577 0.333413 0.666808 Li
0.416577 0.333413 0.000142 Li
0.416577 0.666746 0.333475 Li
0.416577 0.666746 0.666808 Li
0.416577 0.666746 0.000142 Li
0.416577 0.000080 0.333475 Li
0.416577 0.000080 0.666808 Li
0.416577 0.000080 0.000142 Li
0.749910 0.333413 0.333475 Li
0.749910 0.333413 0.666808 Li
0.749910 0.333413 0.000142 Li
0.749910 0.666746 0.333475 Li
0.749910 0.666746 0.666808 Li
0.749910 0.666746 0.000142 Li
0.749910 0.000080 0.333475 Li
0.749910 0.000080 0.666808 Li
0.749910 0.000080 0.000142 Li
0.083244 0.333413 0.333475 Li
0.083244 0.333413 0.666808 Li
0.083244 0.333413 0.000142 Li
0.083244 0.666746 0.333475 Li
0.083244 0.666746 0.666808 Li
0.083244 0.666746 0.000142 Li
0.083244 0.000080 0.333475 Li
0.083244 0.000080 0.666808 Li
0.083244 0.000080 0.000142 Li
0.583304 0.583393 0.583587 Co
0.583304 0.583393 0.916920 Co
0.583304 0.583393 0.250254 Co
0.583304 0.916726 0.583587 Co
0.583304 0.916726 0.916920 Co
0.583304 0.916726 0.250254 Co
0.583304 0.250060 0.583587 Co
0.583304 0.250060 0.916920 Co
0.583304 0.250060 0.250254 Co
0.916637 0.583393 0.583587 Co
0.916637 0.583393 0.916920 Co
0.916637 0.583393 0.250254 Co
0.916637 0.916726 0.583587 Co
0.916637 0.916726 0.916920 Co
0.916637 0.916726 0.250254 Co
0.916637 0.250060 0.583587 Co
0.916637 0.250060 0.916920 Co
0.916637 0.250060 0.250254 Co
0.249970 0.583393 0.583587 Co
0.249970 0.583393 0.916920 Co
0.249970 0.583393 0.250254 Co
0.249970 0.916726 0.583587 Co
0.249970 0.916726 0.916920 Co
0.249970 0.916726 0.250254 Co
0.249970 0.250060 0.583587 Co
0.249970 0.250060 0.916920 Co
0.249970 0.250060 0.250254 Co
0.583304 0.583393 0.416921 Co
0.583304 0.583393 0.750254 Co
0.583304 0.583393 0.083587 Co
0.583304 0.916726 0.416921 Co
0.583304 0.916726 0.750254 Co
0.583304 0.916726 0.083587 Co
0.583304 0.250060 0.416921 Co
0.583304 0.250060 0.750254 Co
0.583304 0.250060 0.083587 Co
0.916637 0.583393 0.416921 Co
0.916637 0.583393 0.750254 Co
0.916637 0.583393 0.083587 Co
0.916637 0.916726 0.416921 Co
0.916637 0.916726 0.750254 Co
0.916637 0.916726 0.083587 Co
0.916637 0.250060 0.416921 Co
0.916637 0.250060 0.750254 Co
0.916637 0.250060 0.083587 Co
0.249970 0.583393 0.416921 Co
0.249970 0.583393 0.750254 Co
0.249970 0.583393 0.083587 Co
0.249970 0.916726 0.416921 Co
0.249970 0.916726 0.750254 Co
0.249970 0.916726 0.083587 Co
0.249970 0.250060 0.416921 Co
0.249970 0.250060 0.750254 Co
0.249970 0.250060 0.083587 Co
0.583304 0.416726 0.583587 Co
0.583304 0.416726 0.916920 Co
0.583304 0.416726 0.250254 Co
0.583304 0.750060 0.583587 Co
0.583304 0.750060 0.916920 Co
0.583304 0.750060 0.250254 Co
0.583304 0.083393 0.583587 Co
0.583304 0.083393 0.916920 Co
0.583304 0.083393 0.250254 Co
0.916637 0.416726 0.583587 Co
0.916637 0.416726 0.916920 Co
0.916637 0.416726 0.250254 Co
0.916637 0.750060 0.583587 Co
0.916637 0.750060 0.916920 Co
0.916637 0.750060 0.250254 Co
0.916637 0.083393 0.583587 Co
0.916637 0.083393 0.916920 Co
0.916637 0.083393 0.250254 Co
0.249970 0.416726 0.583587 Co
0.249970 0.416726 0.916920 Co
0.249970 0.416726 0.250254 Co
0.249970 0.750060 0.583587 Co
0.249970 0.750060 0.916920 Co
0.249970 0.750060 0.250254 Co
0.249970 0.083393 0.583587 Co
0.249970 0.083393 0.916920 Co
0.249970 0.083393 0.250254 Co
0.583304 0.416726 0.416921 Co
0.583304 0.416726 0.750254 Co
0.583304 0.416726 0.083587 Co
0.583304 0.750060 0.416921 Co
0.583304 0.750060 0.750254 Co
0.583304 0.750060 0.083587 Co
0.583304 0.083393 0.416921 Co
0.583304 0.083393 0.750254 Co
0.583304 0.083393 0.083587 Co
0.916637 0.416726 0.416921 Co
0.916637 0.416726 0.750254 Co
0.916637 0.416726 0.083587 Co
0.916637 0.750060 0.416921 Co
0.916637 0.750060 0.750254 Co
0.916637 0.750060 0.083587 Co
0.916637 0.083393 0.416921 Co
0.916637 0.083393 0.750254 Co
0.916637 0.083393 0.083587 Co
0.249970 0.416726 0.416921 Co
0.249970 0.416726 0.750254 Co
0.249970 0.416726 0.083587 Co
0.249970 0.750060 0.416921 Co
0.249970 0.750060 0.750254 Co
0.249970 0.750060 0.083587 Co
0.249970 0.083393 0.416921 Co
0.249970 0.083393 0.750254 Co
0.249970 0.083393 0.083587 Co
0.416637 0.583393 0.583587 Co
0.416637 0.583393 0.916920 Co
0.416637 0.583393 0.250254 Co
0.416637 0.916726 0.583587 Co
0.416637 0.916726 0.916920 Co
0.416637 0.916726 0.250254 Co
0.416637 0.250060 0.583587 Co
0.416637 0.250060 0.916920 Co
0.416637 0.250060 0.250254 Co
0.749970 0.583393 0.583587 Co
0.749970 0.583393 0.916920 Co
0.749970 0.583393 0.250254 Co
0.749970 0.916726 0.583587 Co
0.749970 0.916726 0.916920 Co
0.749970 0.916726 0.250254 Co
0.749970 0.250060 0.583587 Co
0.749970 0.250060 0.916920 Co
0.749970 0.250060 0.250254 Co
0.083304 0.583393 0.583587 Co
0.083304 0.583393 0.916920 Co
0.083304 0.583393 0.250254 Co
0.083304 0.916726 0.583587 Co
0.083304 0.916726 0.916920 Co