simple cubic
1.0
1.0  0.0  0.0
0.0  1.0  0.0
0.0  0.0  1.0
Li
1
direct
0.0 0.0 0.0 Li
