V16 O16
1.0
5.000000 0.000000 0.000000
0.000000 5.000000 0.000000
0.000000 0.000000 5.000000
O V
16 16
direct
0.750000 0.000000 0.250000 O
0.250000 0.750000 0.500000 O
0.750000 0.750000 0.500000 O
0.250000 0.000000 0.750000 O
0.750000 0.000000 0.750000 O
0.000000 0.250000 0.750000 O
0.500000 0.250000 0.250000 O
0.000000 0.250000 0.250000 O
0.500000 0.500000 0.500000 O
0.000000 0.500000 0.500000 O
0.750000 0.750000 0.000000 O
0.250000 0.750000 0.000000 O
0.500000 0.500000 0.000000 O
0.000000 0.500000 0.000000 O
0.500000 0.250000 0.750000 O
0.250000 0.000000 0.250000 O
0.250000 0.500000 0.750000 V
0.750000 0.500000 0.750000 V
0.000000 0.000000 0.000000 V
0.500000 0.750000 0.250000 V
0.250000 0.250000 0.500000 V
0.500000 0.000000 0.500000 V
0.000000 0.000000 0.500000 V
0.000000 0.750000 0.750000 V
0.000000 0.750000 0.250000 V
0.750000 0.500000 0.250000 V
0.250000 0.500000 0.250000 V
0.750000 0.250000 0.000000 V
0.250000 0.250000 0.000000 V
0.500000 0.000000 0.000000 V
0.750000 0.250000 0.500000 V
0.500000 0.750000 0.750000 V
