diamond structure
1.0
0.0 0.5 0.5
0.5 0.0 0.5
0.5 0.5 0.0
Li
2
direct
  -0.125         -0.125         -0.125  Li
   0.125          0.125          0.125  Li
