Li4 Co4 O8                              
   1.00000000000000     
     2.9057979999999999    5.0329899999999999    0.0000000000000000
    -5.8115969999999999    0.0000000000000000    0.0000000000000000
     2.9057979999999999    1.6776629999999999    4.8999119999999996
     4     4     8
Direct
  0.5004571791998560  0.0004282831477503  0.4998770854536954 Li Co
 -0.0001806166015181  0.4998982123821682  0.5007071043988307 Li Co
  0.4989451264739326  0.5007448727579118  0.0017172088062164 Li Co
  0.4994607689226344  0.0004788608373562  0.0008496844438586 Li Co
  0.4998233581012390  0.5003589924660965  0.5015232266570826 Li Co
 -0.0002924722056689  0.0003123725819147  0.5011992915990882 Li Co
  0.9997647396400657  0.0000729878263129  0.0007895984372572 Li Co
 -0.0003964592272278  0.4996796602596559  0.0007085863043509 Li Co
  0.7816811124631500  0.2519000440319544  0.7513149179653941 O
  0.2263721515440296  0.7420690609497770  0.7792560303875948 O
  0.7706010291640476  0.7684685064530328  0.7362076648540385 O
  0.2071410511014974  0.2377942927311487  0.7632806762232306 O
  0.2174633192526351  0.7478059954226266  0.2502342507003611 O
  0.7725132089328456  0.2576024913414262  0.2226800074944700 O
  0.2285259949539185  0.2313300886942480  0.2652020886089753 O
  0.7918785082845632  0.7620682781166133  0.2383915776655487 O
