Li64
1.0
10.136742 0.000000 5.687288
-3.472915 9.523245 -5.687306
0.000000 0.000000 11.877300
Li Co
32 32
direct
0.750229 0.500214 0.749939 Li
0.750229 0.500214 0.249939 Li
0.750228 0.000214 0.749939 Li
0.750228 0.000214 0.249939 Li
0.250229 0.500214 0.749939 Li
0.250229 0.500214 0.249939 Li
0.250229 0.000214 0.749939 Li
0.250229 0.000214 0.249939 Li
0.999910 0.749949 0.750354 Li
0.999910 0.749949 0.250354 Li
0.999910 0.249949 0.750353 Li
0.999910 0.249949 0.250354 Li
0.499910 0.749949 0.750354 Li
0.499910 0.749949 0.250354 Li
0.499909 0.249949 0.750354 Li
0.499909 0.249949 0.250354 Li
0.749472 0.750372 0.500859 Li
0.749472 0.750372 0.000859 Li
0.749472 0.250372 0.500859 Li
0.749472 0.250372 0.000858 Li
0.249472 0.750372 0.500859 Li
0.249472 0.750372 0.000858 Li
0.249472 0.250372 0.500859 Li
0.249472 0.250372 0.000859 Li
0.749731 0.500239 0.500425 Li
0.749731 0.500239 0.000425 Li
0.749730 0.000239 0.500425 Li
0.749730 0.000239 0.000425 Li
0.249730 0.500239 0.500425 Li
0.249730 0.500239 0.000425 Li
0.249731 0.000239 0.500425 Li
0.249731 0.000239 0.000425 Li
0.749911 0.750179 0.750761 Co
0.749911 0.750179 0.250762 Co
0.749911 0.250179 0.750761 Co
0.749911 0.250179 0.250762 Co
0.249911 0.750179 0.750761 Co
0.249911 0.750179 0.250762 Co
0.249912 0.250179 0.750761 Co
0.249912 0.250179 0.250762 Co
0.999854 0.500156 0.750600 Co
0.999854 0.500156 0.250600 Co
0.999854 0.000156 0.750599 Co
0.999854 0.000156 0.250600 Co
0.499854 0.500156 0.750599 Co
0.499854 0.500156 0.250599 Co
0.499854 0.000156 0.750599 Co
0.499854 0.000156 0.250599 Co
0.999883 0.500036 0.500395 Co
0.999883 0.500036 0.000395 Co
0.999883 0.000036 0.500395 Co
0.999883 0.000036 0.000395 Co
0.499883 0.500036 0.500395 Co
0.499883 0.500036 0.000395 Co
0.499883 0.000036 0.500395 Co
0.499883 0.000036 0.000395 Co
0.999802 0.749840 0.500355 Co
0.999802 0.749840 0.000354 Co
0.999802 0.249840 0.500355 Co
0.999802 0.249840 0.000355 Co
0.499802 0.749840 0.500354 Co
0.499802 0.749840 0.000354 Co
0.499802 0.249840 0.500355 Co
0.499802 0.249840 0.000355 Co
