Li2048 Co2048
1.0
40.546967 0.000000 22.749151
-13.891661 38.092980 -22.749222
0.000000 0.000000 47.509200
Li Co
2048 2048
direct
0.437557 0.375053 0.437485 Li
0.437557 0.375053 0.687485 Li
0.437557 0.375053 0.937485 Li
0.437557 0.375053 0.187485 Li
0.437557 0.625054 0.437485 Li
0.437557 0.625054 0.687485 Li
0.437557 0.625054 0.937485 Li
0.437557 0.625054 0.187485 Li
0.437557 0.875054 0.437485 Li
0.437557 0.875054 0.687485 Li
0.437557 0.875054 0.937485 Li
0.437557 0.875054 0.187485 Li
0.437557 0.125054 0.437485 Li
0.437557 0.125054 0.687485 Li
0.437557 0.125054 0.937485 Li
0.437557 0.125054 0.187485 Li
0.687557 0.375053 0.437485 Li
0.687557 0.375053 0.687485 Li
0.687557 0.375053 0.937485 Li
0.687557 0.375053 0.187485 Li
0.687557 0.625054 0.437485 Li
0.687557 0.625054 0.687485 Li
0.687557 0.625054 0.937485 Li
0.687557 0.625054 0.187485 Li
0.687557 0.875054 0.437485 Li
0.687557 0.875054 0.687485 Li
0.687557 0.875054 0.937485 Li
0.687557 0.875054 0.187485 Li
0.687557 0.125054 0.437485 Li
0.687557 0.125054 0.687485 Li
0.687557 0.125054 0.937485 Li
0.687557 0.125054 0.187485 Li
0.937557 0.375053 0.437485 Li
0.937557 0.375053 0.687485 Li
0.937557 0.375053 0.937485 Li
0.937557 0.375053 0.187485 Li
0.937557 0.625054 0.437485 Li
0.937557 0.625054 0.687485 Li
0.937557 0.625054 0.937485 Li
0.937557 0.625054 0.187485 Li
0.937557 0.875054 0.437485 Li
0.937557 0.875054 0.687485 Li
0.937557 0.875054 0.937485 Li
0.937557 0.875054 0.187485 Li
0.937557 0.125054 0.437485 Li
0.937557 0.125054 0.687485 Li
0.937557 0.125054 0.937485 Li
0.937557 0.125054 0.187485 Li
0.187557 0.375053 0.437485 Li
0.187557 0.375053 0.687485 Li
0.187557 0.375053 0.937485 Li
0.187557 0.375053 0.187485 Li
0.187557 0.625054 0.437485 Li
0.187557 0.625054 0.687485 Li
0.187557 0.625054 0.937485 Li
0.187557 0.625054 0.187485 Li
0.187557 0.875054 0.437485 Li
0.187557 0.875054 0.687485 Li
0.187557 0.875054 0.937485 Li
0.187557 0.875054 0.187485 Li
0.187557 0.125054 0.437485 Li
0.187557 0.125054 0.687485 Li
0.187557 0.125054 0.937485 Li
0.187557 0.125054 0.187485 Li
0.437557 0.375053 0.312485 Li
0.437557 0.375053 0.562485 Li
0.437557 0.375053 0.812485 Li
0.437557 0.375053 0.062485 Li
0.437557 0.625054 0.312485 Li
0.437557 0.625054 0.562485 Li
0.437557 0.625054 0.812485 Li
0.437557 0.625054 0.062485 Li
0.437557 0.875054 0.312485 Li
0.437557 0.875054 0.562485 Li
0.437557 0.875054 0.812485 Li
0.437557 0.875054 0.062485 Li
0.437557 0.125054 0.312485 Li
0.437557 0.125054 0.562485 Li
0.437557 0.125054 0.812485 Li
0.437557 0.125054 0.062485 Li
0.687557 0.375053 0.312485 Li
0.687557 0.375053 0.562485 Li
0.687557 0.375053 0.812485 Li
0.687557 0.375053 0.062485 Li
0.687557 0.625054 0.312485 Li
0.687557 0.625054 0.562485 Li
0.687557 0.625054 0.812485 Li
0.687557 0.625054 0.062485 Li
0.687557 0.875054 0.312485 Li
0.687557 0.875054 0.562485 Li
0.687557 0.875054 0.812485 Li
0.687557 0.875054 0.062485 Li
0.687557 0.125054 0.312485 Li
0.687557 0.125054 0.562485 Li
0.687557 0.125054 0.812485 Li
0.687557 0.125054 0.062485 Li
0.937557 0.375053 0.312485 Li
0.937557 0.375053 0.562485 Li
0.937557 0.375053 0.812485 Li
0.937557 0.375053 0.062485 Li
0.937557 0.625054 0.312485 Li
0.937557 0.625054 0.562485 Li
0.937557 0.625054 0.812485 Li
0.937557 0.625054 0.062485 Li
0.937557 0.875054 0.312485 Li
0.937557 0.875054 0.562485 Li
0.937557 0.875054 0.812485 Li
0.937557 0.875054 0.062485 Li
0.937557 0.125054 0.312485 Li
0.937557 0.125054 0.562485 Li
0.937557 0.125054 0.812485 Li
0.937557 0.125054 0.062485 Li
0.187557 0.375053 0.312485 Li
0.187557 0.375053 0.562485 Li
0.187557 0.375053 0.812485 Li
0.187557 0.375053 0.062485 Li
0.187557 0.625054 0.312485 Li
0.187557 0.625054 0.562485 Li
0.187557 0.625054 0.812485 Li
0.187557 0.625054 0.062485 Li
0.187557 0.875054 0.312485 Li
0.187557 0.875054 0.562485 Li
0.187557 0.875054 0.812485 Li
0.187557 0.875054 0.062485 Li
0.187557 0.125054 0.312485 Li
0.187557 0.125054 0.562485 Li
0.187557 0.125054 0.812485 Li
0.187557 0.125054 0.062485 Li
0.437557 0.250053 0.437485 Li
0.437557 0.250053 0.687485 Li
0.437557 0.250053 0.937485 Li
0.437557 0.250053 0.187485 Li
0.437557 0.500054 0.437485 Li
0.437557 0.500054 0.687485 Li
0.437557 0.500054 0.937485 Li
0.437557 0.500054 0.187485 Li
0.437557 0.750054 0.437485 Li
0.437557 0.750054 0.687485 Li
0.437557 0.750054 0.937485 Li
0.437557 0.750054 0.187485 Li
0.437557 0.000053 0.437485 Li
0.437557 0.000053 0.687485 Li
0.437557 0.000053 0.937485 Li
0.437557 0.000053 0.187485 Li
0.687557 0.250053 0.437485 Li
0.687557 0.250053 0.687485 Li
0.687557 0.250053 0.937485 Li
0.687557 0.250053 0.187485 Li
0.687557 0.500054 0.437485 Li
0.687557 0.500054 0.687485 Li
0.687557 0.500054 0.937485 Li
0.687557 0.500054 0.187485 Li
0.687557 0.750054 0.437485 Li
0.687557 0.750054 0.687485 Li
0.687557 0.750054 0.937485 Li
0.687557 0.750054 0.187485 Li
0.687557 0.000053 0.437485 Li
0.687557 0.000053 0.687485 Li
0.687557 0.000053 0.937485 Li
0.687557 0.000053 0.187485 Li
0.937557 0.250053 0.437485 Li
0.937557 0.250053 0.687485 Li
0.937557 0.250053 0.937485 Li
0.937557 0.250053 0.187485 Li
0.937557 0.500054 0.437485 Li
0.937557 0.500054 0.687485 Li
0.937557 0.500054 0.937485 Li
0.937557 0.500054 0.187485 Li
0.937557 0.750054 0.437485 Li
0.937557 0.750054 0.687485 Li
0.937557 0.750054 0.937485 Li
0.937557 0.750054 0.187485 Li
0.937557 0.000053 0.437485 Li
0.937557 0.000053 0.687485 Li
0.937557 0.000053 0.937485 Li
0.937557 0.000053 0.187485 Li
0.187557 0.250053 0.437485 Li
0.187557 0.250053 0.687485 Li
0.187557 0.250053 0.937485 Li
0.187557 0.250053 0.187485 Li
0.187557 0.500054 0.437485 Li
0.187557 0.500054 0.687485 Li
0.187557 0.500054 0.937485 Li
0.187557 0.500054 0.187485 Li
0.187557 0.750054 0.437485 Li
0.187557 0.750054 0.687485 Li
0.187557 0.750054 0.937485 Li
0.187557 0.750054 0.187485 Li
0.187557 0.000053 0.437485 Li
0.187557 0.000053 0.687485 Li
0.187557 0.000053 0.937485 Li
0.187557 0.000053 0.187485 Li
0.437557 0.250053 0.312485 Li
0.437557 0.250053 0.562485 Li
0.437557 0.250053 0.812485 Li
0.437557 0.250053 0.062485 Li
0.437557 0.500054 0.312485 Li
0.437557 0.500054 0.562485 Li
0.437557 0.500054 0.812485 Li
0.437557 0.500054 0.062485 Li
0.437557 0.750054 0.312485 Li
0.437557 0.750054 0.562485 Li
0.437557 0.750054 0.812485 Li
0.437557 0.750054 0.062485 Li
0.437557 0.000053 0.312485 Li
0.437557 0.000053 0.562485 Li
0.437557 0.000053 0.812485 Li
0.437557 0.000053 0.062485 Li
0.687557 0.250053 0.312485 Li
0.687557 0.250053 0.562485 Li
0.687557 0.250053 0.812485 Li
0.687557 0.250053 0.062485 Li
0.687557 0.500054 0.312485 Li
0.687557 0.500054 0.562485 Li
0.687557 0.500054 0.812485 Li
0.687557 0.500054 0.062485 Li
0.687557 0.750054 0.312485 Li
0.687557 0.750054 0.562485 Li
0.687557 0.750054 0.812485 Li
0.687557 0.750054 0.062485 Li
0.687557 0.000053 0.312485 Li
0.687557 0.000053 0.562485 Li
0.687557 0.000053 0.812485 Li
0.687557 0.000053 0.062485 Li
0.937557 0.250053 0.312485 Li
0.937557 0.250053 0.562485 Li
0.937557 0.250053 0.812485 Li
0.937557 0.250053 0.062485 Li
0.937557 0.500054 0.312485 Li
0.937557 0.500054 0.562485 Li
0.937557 0.500054 0.812485 Li
0.937557 0.500054 0.062485 Li
0.937557 0.750054 0.312485 Li
0.937557 0.750054 0.562485 Li
0.937557 0.750054 0.812485 Li
0.937557 0.750054 0.062485 Li
0.937557 0.000053 0.312485 Li
0.937557 0.000053 0.562485 Li
0.937557 0.000053 0.812485 Li
0.937557 0.000053 0.062485 Li
0.187557 0.250053 0.312485 Li
0.187557 0.250053 0.562485 Li
0.187557 0.250053 0.812485 Li
0.187557 0.250053 0.062485 Li
0.187557 0.500054 0.312485 Li
0.187557 0.500054 0.562485 Li
0.187557 0.500054 0.812485 Li
0.187557 0.500054 0.062485 Li
0.187557 0.750054 0.312485 Li
0.187557 0.750054 0.562485 Li
0.187557 0.750054 0.812485 Li
0.187557 0.750054 0.062485 Li
0.187557 0.000053 0.312485 Li
0.187557 0.000053 0.562485 Li
0.187557 0.000053 0.812485 Li
0.187557 0.000053 0.062485 Li
0.312557 0.375053 0.437485 Li
0.312557 0.375053 0.687485 Li
0.312557 0.375053 0.937485 Li
0.312557 0.375053 0.187485 Li
0.312557 0.625054 0.437485 Li
0.312557 0.625054 0.687485 Li
0.312557 0.625054 0.937485 Li
0.312557 0.625054 0.187485 Li
0.312557 0.875054 0.437485 Li
0.312557 0.875054 0.687485 Li
0.312557 0.875054 0.937485 Li
0.312557 0.875054 0.187485 Li
0.312557 0.125054 0.437485 Li
0.312557 0.125054 0.687485 Li
0.312557 0.125054 0.937485 Li
0.312557 0.125054 0.187485 Li
0.562557 0.375053 0.437485 Li
0.562557 0.375053 0.687485 Li
0.562557 0.375053 0.937485 Li
0.562557 0.375053 0.187485 Li
0.562557 0.625054 0.437485 Li
0.562557 0.625054 0.687485 Li
0.562557 0.625054 0.937485 Li
0.562557 0.625054 0.187485 Li
0.562557 0.875054 0.437485 Li
0.562557 0.875054 0.687485 Li
0.562557 0.875054 0.937485 Li
0.562557 0.875054 0.187485 Li
0.562557 0.125054 0.437485 Li
0.562557 0.125054 0.687485 Li
0.562557 0.125054 0.937485 Li
0.562557 0.125054 0.187485 Li
0.812557 0.375053 0.437485 Li
0.812557 0.375053 0.687485 Li
0.812557 0.375053 0.937485 Li
0.812557 0.375053 0.187485 Li
0.812557 0.625054 0.437485 Li
0.812557 0.625054 0.687485 Li
0.812557 0.625054 0.937485 Li
0.812557 0.625054 0.187485 Li
0.812557 0.875054 0.437485 Li
0.812557 0.875054 0.687485 Li
0.812557 0.875054 0.937485 Li
0.812557 0.875054 0.187485 Li
0.812557 0.125054 0.437485 Li
0.812557 0.125054 0.687485 Li
0.812557 0.125054 0.937485 Li
0.812557 0.125054 0.187485 Li
0.062557 0.375053 0.437485 Li
0.062557 0.375053 0.687485 Li
0.062557 0.375053 0.937485 Li
0.062557 0.375053 0.187485 Li
0.062557 0.625054 0.437485 Li
0.062557 0.625054 0.687485 Li
0.062557 0.625054 0.937485 Li
0.062557 0.625054 0.187485 Li
0.062557 0.875054 0.437485 Li
0.062557 0.875054 0.687485 Li
0.062557 0.875054 0.937485 Li
0.062557 0.875054 0.187485 Li
0.062557 0.125054 0.437485 Li
0.062557 0.125054 0.687485 Li
0.062557 0.125054 0.937485 Li
0.062557 0.125054 0.187485 Li
0.312557 0.375053 0.312485 Li
0.312557 0.375053 0.562485 Li
0.312557 0.375053 0.812485 Li
0.312557 0.375053 0.062485 Li
0.312557 0.625054 0.312485 Li
0.312557 0.625054 0.562485 Li
0.312557 0.625054 0.812485 Li
0.312557 0.625054 0.062485 Li
0.312557 0.875054 0.312485 Li
0.312557 0.875054 0.562485 Li
0.312557 0.875054 0.812485 Li
0.312557 0.875054 0.062485 Li
0.312557 0.125054 0.312485 Li
0.312557 0.125054 0.562485 Li
0.312557 0.125054 0.812485 Li
0.312557 0.125054 0.062485 Li
0.562557 0.375053 0.312485 Li
0.562557 0.375053 0.562485 Li
0.562557 0.375053 0.812485 Li
0.562557 0.375053 0.062485 Li
0.562557 0.625054 0.312485 Li
0.562557 0.625054 0.562485 Li
0.562557 0.625054 0.812485 Li
0.562557 0.625054 0.062485 Li
0.562557 0.875054 0.312485 Li
0.562557 0.875054 0.562485 Li
0.562557 0.875054 0.812485 Li
0.562557 0.875054 0.062485 Li
0.562557 0.125054 0.312485 Li
0.562557 0.125054 0.562485 Li
0.562557 0.125054 0.812485 Li
0.562557 0.125054 0.062485 Li
0.812557 0.375053 0.312485 Li
0.812557 0.375053 0.562485 Li
0.812557 0.375053 0.812485 Li
0.812557 0.375053 0.062485 Li
0.812557 0.625054 0.312485 Li
0.812557 0.625054 0.562485 Li
0.812557 0.625054 0.812485 Li
0.812557 0.625054 0.062485 Li
0.812557 0.875054 0.312485 Li
0.812557 0.875054 0.562485 Li
0.812557 0.875054 0.812485 Li
0.812557 0.875054 0.062485 Li
0.812557 0.125054 0.312485 Li
0.812557 0.125054 0.562485 Li
0.812557 0.125054 0.812485 Li
0.812557 0.125054 0.062485 Li
0.062557 0.375053 0.312485 Li
0.062557 0.375053 0.562485 Li
0.062557 0.375053 0.812485 Li
0.062557 0.375053 0.062485 Li
0.062557 0.625054 0.312485 Li
0.062557 0.625054 0.562485 Li
0.062557 0.625054 0.812485 Li
0.062557 0.625054 0.062485 Li
0.062557 0.875054 0.312485 Li
0.062557 0.875054 0.562485 Li
0.062557 0.875054 0.812485 Li
0.062557 0.875054 0.062485 Li
0.062557 0.125054 0.312485 Li
0.062557 0.125054 0.562485 Li
0.062557 0.125054 0.812485 Li
0.062557 0.125054 0.062485 Li
0.312557 0.250053 0.437485 Li
0.312557 0.250053 0.687485 Li
0.312557 0.250053 0.937485 Li
0.312557 0.250053 0.187485 Li
0.312557 0.500054 0.437485 Li
0.312557 0.500054 0.687485 Li
0.312557 0.500054 0.937485 Li
0.312557 0.500054 0.187485 Li
0.312557 0.750054 0.437485 Li
0.312557 0.750054 0.687485 Li
0.312557 0.750054 0.937485 Li
0.312557 0.750054 0.187485 Li
0.312557 0.000053 0.437485 Li
0.312557 0.000053 0.687485 Li
0.312557 0.000053 0.937485 Li
0.312557 0.000053 0.187485 Li
0.562557 0.250053 0.437485 Li
0.562557 0.250053 0.687485 Li
0.562557 0.250053 0.937485 Li
0.562557 0.250053 0.187485 Li
0.562557 0.500054 0.437485 Li
0.562557 0.500054 0.687485 Li
0.562557 0.500054 0.937485 Li
0.562557 0.500054 0.187485 Li
0.562557 0.750054 0.437485 Li
0.562557 0.750054 0.687485 Li
0.562557 0.750054 0.937485 Li
0.562557 0.750054 0.187485 Li
0.562557 0.000053 0.437485 Li
0.562557 0.000053 0.687485 Li
0.562557 0.000053 0.937485 Li
0.562557 0.000053 0.187485 Li
0.812557 0.250053 0.437485 Li
0.812557 0.250053 0.687485 Li
0.812557 0.250053 0.937485 Li
0.812557 0.250053 0.187485 Li
0.812557 0.500054 0.437485 Li
0.812557 0.500054 0.687485 Li
0.812557 0.500054 0.937485 Li
0.812557 0.500054 0.187485 Li
0.812557 0.750054 0.437485 Li
0.812557 0.750054 0.687485 Li
0.812557 0.750054 0.937485 Li
0.812557 0.750054 0.187485 Li
0.812557 0.000053 0.437485 Li
0.812557 0.000053 0.687485 Li
0.812557 0.000053 0.937485 Li
0.812557 0.000053 0.187485 Li
0.062557 0.250053 0.437485 Li
0.062557 0.250053 0.687485 Li
0.062557 0.250053 0.937485 Li
0.062557 0.250053 0.187485 Li
0.062557 0.500054 0.437485 Li
0.062557 0.500054 0.687485 Li
0.062557 0.500054 0.937485 Li
0.062557 0.500054 0.187485 Li
0.062557 0.750054 0.437485 Li
0.062557 0.750054 0.687485 Li
0.062557 0.750054 0.937485 Li
0.062557 0.750054 0.187485 Li
0.062557 0.000053 0.437485 Li
0.062557 0.000053 0.687485 Li
0.062557 0.000053 0.937485 Li
0.062557 0.000053 0.187485 Li
0.312557 0.250053 0.312485 Li
0.312557 0.250053 0.562485 Li
0.312557 0.250053 0.812485 Li
0.312557 0.250053 0.062485 Li
0.312557 0.500054 0.312485 Li
0.312557 0.500054 0.562485 Li
0.312557 0.500054 0.812485 Li
0.312557 0.500054 0.062485 Li
0.312557 0.750054 0.312485 Li
0.312557 0.750054 0.562485 Li
0.312557 0.750054 0.812485 Li
0.312557 0.750054 0.062485 Li
0.312557 0.000053 0.312485 Li
0.312557 0.000053 0.562485 Li
0.312557 0.000053 0.812485 Li
0.312557 0.000053 0.062485 Li
0.562557 0.250053 0.312485 Li
0.562557 0.250053 0.562485 Li
0.562557 0.250053 0.812485 Li
0.562557 0.250053 0.062485 Li
0.562557 0.500054 0.312485 Li
0.562557 0.500054 0.562485 Li
0.562557 0.500054 0.812485 Li
0.562557 0.500054 0.062485 Li
0.562557 0.750054 0.312485 Li
0.562557 0.750054 0.562485 Li
0.562557 0.750054 0.812485 Li
0.562557 0.750054 0.062485 Li
0.562557 0.000053 0.312485 Li
0.562557 0.000053 0.562485 Li
0.562557 0.000053 0.812485 Li
0.562557 0.000053 0.062485 Li
0.812557 0.250053 0.312485 Li
0.812557 0.250053 0.562485 Li
0.812557 0.250053 0.812485 Li
0.812557 0.250053 0.062485 Li
0.812557 0.500054 0.312485 Li
0.812557 0.500054 0.562485 Li
0.812557 0.500054 0.812485 Li
0.812557 0.500054 0.062485 Li
0.812557 0.750054 0.312485 Li
0.812557 0.750054 0.562485 Li
0.812557 0.750054 0.812485 Li
0.812557 0.750054 0.062485 Li
0.812557 0.000053 0.312485 Li
0.812557 0.000053 0.562485 Li
0.812557 0.000053 0.812485 Li
0.812557 0.000053 0.062485 Li
0.062557 0.250053 0.312485 Li
0.062557 0.250053 0.562485 Li
0.062557 0.250053 0.812485 Li
0.062557 0.250053 0.062485 Li
0.062557 0.500054 0.312485 Li
0.062557 0.500054 0.562485 Li
0.062557 0.500054 0.812485 Li
0.062557 0.500054 0.062485 Li
0.062557 0.750054 0.312485 Li
0.062557 0.750054 0.562485 Li
0.062557 0.750054 0.812485 Li
0.062557 0.750054 0.062485 Li
0.062557 0.000053 0.312485 Li
0.062557 0.000053 0.562485 Li
0.062557 0.000053 0.812485 Li
0.062557 0.000053 0.062485 Li
0.499978 0.437487 0.437588 Li
0.499978 0.437487 0.687588 Li
0.499978 0.437487 0.937589 Li
0.499978 0.437487 0.187588 Li
0.499978 0.687487 0.437589 Li
0.499978 0.687487 0.687588 Li
0.499978 0.687487 0.937589 Li
0.499978 0.687487 0.187588 Li
0.499978 0.937487 0.437588 Li
0.499978 0.937487 0.687588 Li
0.499978 0.937487 0.937589 Li
0.499978 0.937487 0.187588 Li
0.499978 0.187487 0.437589 Li
0.499978 0.187487 0.687588 Li
0.499978 0.187487 0.937588 Li
0.499978 0.187487 0.187588 Li
0.749977 0.437487 0.437589 Li
0.749977 0.437487 0.687588 Li
0.749977 0.437487 0.937589 Li
0.749977 0.437487 0.187588 Li
0.749977 0.687487 0.437588 Li
0.749977 0.687487 0.687588 Li
0.749977 0.687487 0.937589 Li
0.749977 0.687487 0.187588 Li
0.749977 0.937487 0.437588 Li
0.749977 0.937487 0.687588 Li
0.749977 0.937487 0.937589 Li
0.749977 0.937487 0.187588 Li
0.749977 0.187487 0.437589 Li
0.749977 0.187487 0.687589 Li
0.749977 0.187487 0.937589 Li
0.749977 0.187487 0.187589 Li
0.999977 0.437487 0.437588 Li
0.999977 0.437487 0.687588 Li
0.999977 0.437487 0.937589 Li
0.999977 0.437487 0.187588 Li
0.999977 0.687487 0.437588 Li
0.999977 0.687487 0.687588 Li
0.999977 0.687487 0.937589 Li
0.999977 0.687487 0.187588 Li
0.999977 0.937487 0.437588 Li
0.999977 0.937487 0.687588 Li
0.999977 0.937487 0.937589 Li
0.999977 0.937487 0.187588 Li
0.999977 0.187487 0.437589 Li
0.999977 0.187487 0.687589 Li
0.999977 0.187487 0.937589 Li
0.999977 0.187487 0.187589 Li
0.249977 0.437487 0.437589 Li
0.249977 0.437487 0.687589 Li
0.249977 0.437487 0.937589 Li
0.249977 0.437487 0.187588 Li
0.249977 0.687487 0.437588 Li
0.249977 0.687487 0.687588 Li
0.249977 0.687487 0.937588 Li
0.249977 0.687487 0.187588 Li
0.249977 0.937487 0.437588 Li
0.249977 0.937487 0.687588 Li
0.249977 0.937487 0.937589 Li
0.249977 0.937487 0.187588 Li
0.249978 0.187487 0.437589 Li
0.249978 0.187487 0.687589 Li
0.249978 0.187487 0.937589 Li
0.249978 0.187487 0.187588 Li
0.499978 0.437487 0.312588 Li
0.499978 0.437487 0.562588 Li
0.499978 0.437487 0.812588 Li
0.499978 0.437487 0.062588 Li
0.499978 0.687487 0.312588 Li
0.499978 0.687487 0.562589 Li
0.499978 0.687487 0.812589 Li
0.499978 0.687487 0.062588 Li
0.499978 0.937487 0.312588 Li
0.499978 0.937487 0.562589 Li
0.499978 0.937487 0.812589 Li
0.499978 0.937487 0.062588 Li
0.499978 0.187487 0.312588 Li
0.499978 0.187487 0.562589 Li
0.499978 0.187487 0.812588 Li
0.499978 0.187487 0.062589 Li
0.749977 0.437487 0.312589 Li
0.749977 0.437487 0.562589 Li
0.749977 0.437487 0.812589 Li
0.749977 0.437487 0.062589 Li
0.749977 0.687487 0.312589 Li
0.749977 0.687487 0.562589 Li
0.749977 0.687487 0.812589 Li
0.749977 0.687487 0.062588 Li
0.749977 0.937487 0.312588 Li
0.749977 0.937487 0.562588 Li
0.749977 0.937487 0.812588 Li
0.749977 0.937487 0.062588 Li
0.749977 0.187487 0.312589 Li
0.749977 0.187487 0.562589 Li
0.749977 0.187487 0.812589 Li
0.749977 0.187487 0.062589 Li
0.999977 0.437487 0.312588 Li
0.999977 0.437487 0.562589 Li
0.999977 0.437487 0.812588 Li
0.999977 0.437487 0.062588 Li
0.999977 0.687487 0.312588 Li
0.999977 0.687487 0.562588 Li
0.999977 0.687487 0.812588 Li
0.999977 0.687487 0.062588 Li
0.999977 0.937487 0.312588 Li
0.999977 0.937487 0.562588 Li
0.999977 0.937487 0.812588 Li
0.999977 0.937487 0.062588 Li
0.999977 0.187487 0.312589 Li
0.999977 0.187487 0.562589 Li
0.999977 0.187487 0.812589 Li
0.999977 0.187487 0.062588 Li
0.249977 0.437487 0.312588 Li
0.249977 0.437487 0.562589 Li
0.249977 0.437487 0.812589 Li
0.249977 0.437487 0.062588 Li
0.249977 0.687487 0.312588 Li
0.249977 0.687487 0.562589 Li
0.249977 0.687487 0.812588 Li
0.249977 0.687487 0.062588 Li
0.249977 0.937487 0.312588 Li
0.249977 0.937487 0.562588 Li
0.249977 0.937487 0.812588 Li
0.249977 0.937487 0.062588 Li
0.249978 0.187487 0.312588 Li
0.249978 0.187487 0.562589 Li
0.249978 0.187487 0.812589 Li
0.249978 0.187487 0.062588 Li
0.499978 0.312487 0.437588 Li
0.499978 0.312487 0.687588 Li
0.499978 0.312487 0.937588 Li
0.499978 0.312487 0.187588 Li
0.499978 0.562487 0.437588 Li
0.499978 0.562487 0.687588 Li
0.499978 0.562487 0.937588 Li
0.499978 0.562487 0.187588 Li
0.499978 0.812487 0.437588 Li
0.499978 0.812487 0.687588 Li
0.499978 0.812487 0.937588 Li
0.499978 0.812487 0.187588 Li
0.499978 0.062487 0.437588 Li
0.499978 0.062487 0.687588 Li
0.499978 0.062487 0.937588 Li
0.499978 0.062487 0.187588 Li
0.749978 0.312487 0.437588 Li
0.749978 0.312487 0.687588 Li
0.749978 0.312487 0.937588 Li
0.749978 0.312487 0.187588 Li
0.749977 0.562487 0.437588 Li
0.749977 0.562487 0.687588 Li
0.749977 0.562487 0.937588 Li
0.749977 0.562487 0.187588 Li
0.749977 0.812487 0.437588 Li
0.749977 0.812487 0.687588 Li
0.749977 0.812487 0.937588 Li
0.749977 0.812487 0.187588 Li
0.749978 0.062487 0.437588 Li
0.749978 0.062487 0.687588 Li
0.749978 0.062487 0.937588 Li
0.749978 0.062487 0.187588 Li
0.999978 0.312487 0.437588 Li
0.999978 0.312487 0.687588 Li
0.999978 0.312487 0.937588 Li
0.999978 0.312487 0.187588 Li
0.999978 0.562487 0.437588 Li
0.999978 0.562487 0.687588 Li
0.999978 0.562487 0.937588 Li
0.999978 0.562487 0.187588 Li
0.999977 0.812487 0.437588 Li
0.999977 0.812487 0.687588 Li
0.999977 0.812487 0.937588 Li
0.999977 0.812487 0.187588 Li
0.999978 0.062487 0.437588 Li
0.999978 0.062487 0.687588 Li
0.999978 0.062487 0.937588 Li
0.999978 0.062487 0.187588 Li
0.249978 0.312487 0.437588 Li
0.249978 0.312487 0.687588 Li
0.249978 0.312487 0.937588 Li
0.249978 0.312487 0.187588 Li
0.249977 0.562487 0.437588 Li
0.249977 0.562487 0.687588 Li
0.249977 0.562487 0.937588 Li
0.249977 0.562487 0.187588 Li
0.249977 0.812487 0.437588 Li
0.249977 0.812487 0.687588 Li
0.249977 0.812487 0.937588 Li
0.249977 0.812487 0.187588 Li
0.249978 0.062487 0.437588 Li
0.249978 0.062487 0.687588 Li
0.249978 0.062487 0.937588 Li
0.249978 0.062487 0.187588 Li
0.499978 0.312487 0.312588 Li
0.499978 0.312487 0.562589 Li
0.499978 0.312487 0.812589 Li
0.499978 0.312487 0.062588 Li
0.499978 0.562487 0.312588 Li
0.499978 0.562487 0.562589 Li
0.499978 0.562487 0.812589 Li
0.499978 0.562487 0.062589 Li
0.499978 0.812487 0.312588 Li
0.499978 0.812487 0.562589 Li
0.499978 0.812487 0.812589 Li
0.499978 0.812487 0.062588 Li
0.499978 0.062487 0.312588 Li
0.499978 0.062487 0.562589 Li
0.499978 0.062487 0.812589 Li
0.499978 0.062487 0.062589 Li
0.749978 0.312487 0.312588 Li
0.749978 0.312487 0.562589 Li
0.749978 0.312487 0.812589 Li
0.749978 0.312487 0.062588 Li
0.749977 0.562487 0.312589 Li
0.749977 0.562487 0.562589 Li
0.749977 0.562487 0.812589 Li
0.749977 0.562487 0.062589 Li
0.749977 0.812487 0.312589 Li
0.749977 0.812487 0.562589 Li
0.749977 0.812487 0.812589 Li
0.749977 0.812487 0.062589 Li
0.749978 0.062487 0.312589 Li
0.749978 0.062487 0.562589 Li
0.749978 0.062487 0.812589 Li
0.749978 0.062487 0.062589 Li
0.999978 0.312487 0.312588 Li
0.999978 0.312487 0.562589 Li
0.999978 0.312487 0.812589 Li
0.999978 0.312487 0.062588 Li
0.999978 0.562487 0.312588 Li
0.999978 0.562487 0.562589 Li
0.999978 0.562487 0.812589 Li
0.999978 0.562487 0.062588 Li
0.999977 0.812487 0.312588 Li
0.999977 0.812487 0.562589 Li
0.999977 0.812487 0.812589 Li
0.999977 0.812487 0.062588 Li
0.999978 0.062487 0.312588 Li
0.999978 0.062487 0.562588 Li
0.999978 0.062487 0.812588 Li
0.999978 0.062487 0.062588 Li
0.249978 0.312487 0.312588 Li
0.249978 0.312487 0.562589 Li
0.249978 0.312487 0.812589 Li
0.249978 0.312487 0.062588 Li
0.249977 0.562487 0.312589 Li
0.249977 0.562487 0.562589 Li
0.249977 0.562487 0.812589 Li
0.249977 0.562487 0.062589 Li
0.249977 0.812487 0.312589 Li
0.249977 0.812487 0.562589 Li
0.249977 0.812487 0.812589 Li
0.249977 0.812487 0.062589 Li
0.249978 0.062487 0.312589 Li
0.249978 0.062487 0.562589 Li
0.249978 0.062487 0.812589 Li
0.249978 0.062487 0.062588 Li
0.374977 0.437487 0.437589 Li
0.374977 0.437487 0.687589 Li
0.374977 0.437487 0.937589 Li
0.374977 0.437487 0.187588 Li
0.374977 0.687487 0.437589 Li
0.374977 0.687487 0.687589 Li
0.374977 0.687487 0.937589 Li
0.374977 0.687487 0.187588 Li
0.374977 0.937487 0.437588 Li
0.374977 0.937487 0.687588 Li
0.374977 0.937487 0.937588 Li
0.374977 0.937487 0.187588 Li
0.374978 0.187487 0.437589 Li
0.374978 0.187487 0.687589 Li
0.374978 0.187487 0.937589 Li
0.374978 0.187487 0.187589 Li
0.624977 0.437487 0.437589 Li
0.624977 0.437487 0.687589 Li
0.624977 0.437487 0.937589 Li
0.624977 0.437487 0.187588 Li
0.624977 0.687487 0.437589 Li
0.624977 0.687487 0.687589 Li
0.624977 0.687487 0.937589 Li
0.624977 0.687487 0.187588 Li
0.624977 0.937487 0.437588 Li
0.624977 0.937487 0.687588 Li
0.624977 0.937487 0.937589 Li
0.624977 0.937487 0.187588 Li
0.624977 0.187487 0.437589 Li
0.624977 0.187487 0.687589 Li
0.624977 0.187487 0.937589 Li
0.624977 0.187487 0.187589 Li
0.874977 0.437487 0.437589 Li
0.874977 0.437487 0.687589 Li
0.874977 0.437487 0.937589 Li
0.874977 0.437487 0.187589 Li
0.874977 0.687487 0.437589 Li
0.874977 0.687487 0.687589 Li
0.874977 0.687487 0.937589 Li
0.874977 0.687487 0.187589 Li
0.874977 0.937487 0.437589 Li
0.874977 0.937487 0.687588 Li
0.874977 0.937487 0.937589 Li
0.874977 0.937487 0.187588 Li
0.874977 0.187487 0.437589 Li
0.874977 0.187487 0.687589 Li
0.874977 0.187487 0.937589 Li
0.874977 0.187487 0.187589 Li
0.124977 0.437487 0.437589 Li
0.124977 0.437487 0.687588 Li
0.124977 0.437487 0.937589 Li
0.124977 0.437487 0.187588 Li
0.124977 0.687487 0.437589 Li
0.124977 0.687487 0.687588 Li
0.124977 0.687487 0.937589 Li
0.124977 0.687487 0.187588 Li
0.124977 0.937487 0.437588 Li
0.124977 0.937487 0.687588 Li
0.124977 0.937487 0.937588 Li
0.124977 0.937487 0.187588 Li
0.124978 0.187487 0.437589 Li
0.124978 0.187487 0.687589 Li
0.124978 0.187487 0.937589 Li
0.124978 0.187487 0.187588 Li
0.374977 0.437487 0.312588 Li
0.374977 0.437487 0.562589 Li
0.374977 0.437487 0.812589 Li
0.374977 0.437487 0.062588 Li
0.374977 0.687487 0.312588 Li
0.374977 0.687487 0.562589 Li
0.374977 0.687487 0.812589 Li
0.374977 0.687487 0.062588 Li
0.374977 0.937487 0.312588 Li
0.374977 0.937487 0.562588 Li
0.374977 0.937487 0.812588 Li
0.374977 0.937487 0.062588 Li
0.374978 0.187487 0.312588 Li
0.374978 0.187487 0.562589 Li
0.374978 0.187487 0.812589 Li
0.374978 0.187487 0.062589 Li
0.624977 0.437487 0.312588 Li
0.624977 0.437487 0.562589 Li
0.624977 0.437487 0.812589 Li
0.624977 0.437487 0.062588 Li
0.624977 0.687487 0.312589 Li
0.624977 0.687487 0.562589 Li
0.624977 0.687487 0.812589 Li
0.624977 0.687487 0.062589 Li
0.624977 0.937487 0.312588 Li
0.624977 0.937487 0.562588 Li
0.624977 0.937487 0.812588 Li
0.624977 0.937487 0.062588 Li
0.624977 0.187487 0.312588 Li
0.624977 0.187487 0.562589 Li
0.624977 0.187487 0.812589 Li
0.624977 0.187487 0.062589 Li
0.874977 0.437487 0.312589 Li
0.874977 0.437487 0.562589 Li
0.874977 0.437487 0.812589 Li
0.874977 0.437487 0.062589 Li
0.874977 0.687487 0.312589 Li
0.874977 0.687487 0.562589 Li
0.874977 0.687487 0.812589 Li
0.874977 0.687487 0.062589 Li
0.874977 0.937487 0.312588 Li
0.874977 0.937487 0.562589 Li
0.874977 0.937487 0.812589 Li
0.874977 0.937487 0.062588 Li
0.874977 0.187487 0.312589 Li
0.874977 0.187487 0.562589 Li
0.874977 0.187487 0.812589 Li
0.874977 0.187487 0.062589 Li
0.124977 0.437487 0.312588 Li
0.124977 0.437487 0.562589 Li
0.124977 0.437487 0.812588 Li
0.124977 0.437487 0.062588 Li
0.124977 0.687487 0.312588 Li
0.124977 0.687487 0.562589 Li
0.124977 0.687487 0.812589 Li
0.124977 0.687487 0.062588 Li
0.124977 0.937487 0.312588 Li
0.124977 0.937487 0.562588 Li
0.124977 0.937487 0.812588 Li
0.124977 0.937487 0.062588 Li
0.124978 0.187487 0.312588 Li
0.124978 0.187487 0.562589 Li
0.124978 0.187487 0.812589 Li
0.124978 0.187487 0.062589 Li
0.374977 0.312487 0.437588 Li
0.374977 0.312487 0.687588 Li
0.374977 0.312487 0.937589 Li
0.374977 0.312487 0.187588 Li
0.374977 0.562487 0.437589 Li
0.374977 0.562487 0.687589 Li
0.374977 0.562487 0.937589 Li
0.374977 0.562487 0.187588 Li
0.374977 0.812487 0.437589 Li
0.374977 0.812487 0.687588 Li
0.374977 0.812487 0.937589 Li
0.374977 0.812487 0.187588 Li
0.374977 0.062487 0.437588 Li
0.374977 0.062487 0.687588 Li
0.374977 0.062487 0.937589 Li
0.374977 0.062487 0.187588 Li
0.624977 0.312487 0.437589 Li
0.624977 0.312487 0.687588 Li
0.624977 0.312487 0.937588 Li
0.624977 0.312487 0.187588 Li
0.624977 0.562487 0.437589 Li
0.624977 0.562487 0.687589 Li
0.624977 0.562487 0.937589 Li
0.624977 0.562487 0.187589 Li
0.624977 0.812487 0.437589 Li
0.624977 0.812487 0.687589 Li
0.624977 0.812487 0.937589 Li
0.624977 0.812487 0.187588 Li
0.624977 0.062487 0.437589 Li
0.624977 0.062487 0.687589 Li
0.624977 0.062487 0.937589 Li
0.624977 0.062487 0.187588 Li
0.874977 0.312487 0.437588 Li
0.874977 0.312487 0.687589 Li
0.874977 0.312487 0.937589 Li
0.874977 0.312487 0.187588 Li
0.874977 0.562487 0.437588 Li
0.874977 0.562487 0.687588 Li
0.874977 0.562487 0.937589 Li
0.874977 0.562487 0.187588 Li
0.874977 0.812487 0.437589 Li
0.874977 0.812487 0.687589 Li
0.874977 0.812487 0.937589 Li
0.874977 0.812487 0.187588 Li
0.874977 0.062487 0.437588 Li
0.874977 0.062487 0.687588 Li
0.874977 0.062487 0.937588 Li
0.874977 0.062487 0.187588 Li
0.124977 0.312487 0.437589 Li
0.124977 0.312487 0.687588 Li
0.124977 0.312487 0.937589 Li
0.124977 0.312487 0.187588 Li
0.124977 0.562487 0.437589 Li
0.124977 0.562487 0.687589 Li
0.124977 0.562487 0.937589 Li
0.124977 0.562487 0.187588 Li
0.124977 0.812487 0.437588 Li
0.124977 0.812487 0.687589 Li
0.124977 0.812487 0.937589 Li
0.124977 0.812487 0.187588 Li
0.124977 0.062487 0.437589 Li
0.124977 0.062487 0.687589 Li
0.124977 0.062487 0.937589 Li
0.124977 0.062487 0.187588 Li
0.374977 0.312487 0.312588 Li
0.374977 0.312487 0.562589 Li
0.374977 0.312487 0.812589 Li
0.374977 0.312487 0.062588 Li
0.374977 0.562487 0.312589 Li
0.374977 0.562487 0.562589 Li
0.374977 0.562487 0.812589 Li
0.374977 0.562487 0.062589 Li
0.374977 0.812487 0.312588 Li
0.374977 0.812487 0.562589 Li
0.374977 0.812487 0.812589 Li
0.374977 0.812487 0.062588 Li
0.374977 0.062487 0.312589 Li
0.374977 0.062487 0.562589 Li
0.374977 0.062487 0.812589 Li
0.374977 0.062487 0.062589 Li
0.624977 0.312487 0.312589 Li
0.624977 0.312487 0.562588 Li
0.624977 0.312487 0.812589 Li
0.624977 0.312487 0.062588 Li
0.624977 0.562487 0.312589 Li
0.624977 0.562487 0.562589 Li
0.624977 0.562487 0.812589 Li
0.624977 0.562487 0.062589 Li
0.624977 0.812487 0.312589 Li
0.624977 0.812487 0.562589 Li
0.624977 0.812487 0.812589 Li
0.624977 0.812487 0.062589 Li
0.624977 0.062487 0.312589 Li
0.624977 0.062487 0.562589 Li
0.624977 0.062487 0.812589 Li
0.624977 0.062487 0.062589 Li
0.874977 0.312487 0.312588 Li
0.874977 0.312487 0.562589 Li
0.874977 0.312487 0.812589 Li