Li256 Co256
1.0
20.273484 0.000000 11.374576
-6.945831 19.046490 -11.374611
0.000000 0.000000 23.754600
Li Co
256 256
direct
0.875115 0.750107 0.874969 Li
0.875115 0.750107 0.374970 Li
0.875114 0.250107 0.874970 Li
0.875114 0.250107 0.374970 Li
0.375115 0.750107 0.874970 Li
0.375115 0.750107 0.374969 Li
0.375115 0.250107 0.874970 Li
0.375115 0.250107 0.374970 Li
0.875115 0.750107 0.624969 Li
0.875115 0.750107 0.124969 Li
0.875114 0.250107 0.624970 Li
0.875114 0.250107 0.124970 Li
0.375115 0.750107 0.624969 Li
0.375115 0.750107 0.124969 Li
0.375115 0.250107 0.624970 Li
0.375115 0.250107 0.124970 Li
0.875114 0.500107 0.874969 Li
0.875114 0.500107 0.374970 Li
0.875114 0.000107 0.874970 Li
0.875114 0.000107 0.374970 Li
0.375114 0.500107 0.874969 Li
0.375114 0.500107 0.374970 Li
0.375114 0.000107 0.874970 Li
0.375114 0.000107 0.374970 Li
0.875114 0.500107 0.624969 Li
0.875114 0.500107 0.124970 Li
0.875114 0.000107 0.624970 Li
0.875114 0.000107 0.124970 Li
0.375114 0.500107 0.624969 Li
0.375114 0.500107 0.124970 Li
0.375114 0.000107 0.624970 Li
0.375114 0.000107 0.124970 Li
0.625115 0.750107 0.874969 Li
0.625115 0.750107 0.374970 Li
0.625115 0.250107 0.874969 Li
0.625115 0.250107 0.374970 Li
0.125114 0.750107 0.874969 Li
0.125114 0.750107 0.374969 Li
0.125114 0.250107 0.874969 Li
0.125114 0.250107 0.374970 Li
0.625115 0.750107 0.624969 Li
0.625115 0.750107 0.124969 Li
0.625115 0.250107 0.624970 Li
0.625115 0.250107 0.124970 Li
0.125114 0.750107 0.624969 Li
0.125114 0.750107 0.124969 Li
0.125114 0.250107 0.624970 Li
0.125114 0.250107 0.124970 Li
0.625115 0.500107 0.874970 Li
0.625115 0.500107 0.374970 Li
0.625115 0.000107 0.874970 Li
0.625115 0.000107 0.374970 Li
0.125114 0.500107 0.874970 Li
0.125114 0.500107 0.374970 Li
0.125114 0.000107 0.874970 Li
0.125114 0.000107 0.374970 Li
0.625115 0.500107 0.624970 Li
0.625115 0.500107 0.124970 Li
0.625115 0.000107 0.624969 Li
0.625115 0.000107 0.124970 Li
0.125114 0.500107 0.624969 Li
0.125114 0.500107 0.124969 Li
0.125114 0.000107 0.624970 Li
0.125114 0.000107 0.124970 Li
0.999955 0.874974 0.875177 Li
0.999955 0.874974 0.375177 Li
0.999955 0.374974 0.875177 Li
0.999955 0.374974 0.375177 Li
0.499955 0.874974 0.875177 Li
0.499955 0.874974 0.375177 Li
0.499955 0.374974 0.875177 Li
0.499955 0.374974 0.375177 Li
0.999955 0.874974 0.625177 Li
0.999955 0.874974 0.125177 Li
0.999955 0.374974 0.625177 Li
0.999955 0.374974 0.125177 Li
0.499955 0.874974 0.625177 Li
0.499955 0.874974 0.125177 Li
0.499955 0.374974 0.625177 Li
0.499955 0.374974 0.125177 Li
0.999955 0.624974 0.875176 Li
0.999955 0.624974 0.375177 Li
0.999955 0.124975 0.875177 Li
0.999955 0.124975 0.375177 Li
0.499955 0.624974 0.875177 Li
0.499955 0.624974 0.375176 Li
0.499955 0.124975 0.875177 Li
0.499955 0.124975 0.375177 Li
0.999955 0.624974 0.625177 Li
0.999955 0.624974 0.125177 Li
0.999955 0.124975 0.625177 Li
0.999955 0.124975 0.125177 Li
0.499955 0.624974 0.625177 Li
0.499955 0.624974 0.125177 Li
0.499955 0.124975 0.625177 Li
0.499955 0.124975 0.125177 Li
0.749955 0.874974 0.875177 Li
0.749955 0.874974 0.375177 Li
0.749955 0.374974 0.875177 Li
0.749955 0.374974 0.375177 Li
0.249955 0.874974 0.875177 Li
0.249955 0.874974 0.375177 Li
0.249955 0.374974 0.875177 Li
0.249955 0.374974 0.375177 Li
0.749955 0.874974 0.625177 Li
0.749955 0.874974 0.125177 Li
0.749955 0.374974 0.625177 Li
0.749955 0.374974 0.125177 Li
0.249955 0.874974 0.625177 Li
0.249955 0.874974 0.125177 Li
0.249955 0.374974 0.625177 Li
0.249955 0.374974 0.125177 Li
0.749955 0.624974 0.875177 Li
0.749955 0.624974 0.375177 Li
0.749954 0.124975 0.875177 Li
0.749954 0.124975 0.375177 Li
0.249955 0.624974 0.875177 Li
0.249955 0.624974 0.375177 Li
0.249954 0.124975 0.875177 Li
0.249954 0.124975 0.375177 Li
0.749955 0.624974 0.625177 Li
0.749955 0.624974 0.125177 Li
0.749954 0.124975 0.625177 Li
0.749954 0.124975 0.125177 Li
0.249955 0.624974 0.625177 Li
0.249955 0.624974 0.125177 Li
0.249954 0.124975 0.625177 Li
0.249954 0.124975 0.125177 Li
0.874736 0.875186 0.750429 Li
0.874736 0.875186 0.250430 Li
0.874736 0.375186 0.750429 Li
0.874736 0.375186 0.250429 Li
0.374736 0.875186 0.750430 Li
0.374736 0.875186 0.250430 Li
0.374736 0.375186 0.750430 Li
0.374736 0.375186 0.250430 Li
0.874736 0.875186 0.500430 Li
0.874736 0.875186 0.000430 Li
0.874736 0.375186 0.500429 Li
0.874736 0.375186 0.000429 Li
0.374736 0.875186 0.500430 Li
0.374736 0.875186 0.000429 Li
0.374736 0.375186 0.500430 Li
0.374736 0.375186 0.000429 Li
0.874736 0.625186 0.750430 Li
0.874736 0.625186 0.250430 Li
0.874736 0.125186 0.750429 Li
0.874736 0.125186 0.250430 Li
0.374736 0.625186 0.750429 Li
0.374736 0.625186 0.250430 Li
0.374736 0.125186 0.750430 Li
0.374736 0.125186 0.250430 Li
0.874736 0.625186 0.500429 Li
0.874736 0.625186 0.000429 Li
0.874736 0.125186 0.500429 Li
0.874736 0.125186 0.000429 Li
0.374736 0.625186 0.500429 Li
0.374736 0.625186 0.000429 Li
0.374736 0.125186 0.500429 Li
0.374736 0.125186 0.000429 Li
0.624736 0.875186 0.750430 Li
0.624736 0.875186 0.250430 Li
0.624736 0.375186 0.750429 Li
0.624736 0.375186 0.250430 Li
0.124736 0.875186 0.750429 Li
0.124736 0.875186 0.250430 Li
0.124736 0.375186 0.750429 Li
0.124736 0.375186 0.250430 Li
0.624736 0.875186 0.500429 Li
0.624736 0.875186 0.000429 Li
0.624736 0.375186 0.500429 Li
0.624736 0.375186 0.000429 Li
0.124736 0.875186 0.500429 Li
0.124736 0.875186 0.000429 Li
0.124736 0.375186 0.500429 Li
0.124736 0.375186 0.000429 Li
0.624736 0.625186 0.750430 Li
0.624736 0.625186 0.250430 Li
0.624736 0.125186 0.750429 Li
0.624736 0.125186 0.250430 Li
0.124736 0.625186 0.750429 Li
0.124736 0.625186 0.250430 Li
0.124736 0.125186 0.750430 Li
0.124736 0.125186 0.250430 Li
0.624736 0.625186 0.500430 Li
0.624736 0.625186 0.000430 Li
0.624736 0.125186 0.500430 Li
0.624736 0.125186 0.000429 Li
0.124736 0.625186 0.500429 Li
0.124736 0.625186 0.000429 Li
0.124736 0.125186 0.500430 Li
0.124736 0.125186 0.000430 Li
0.874865 0.750120 0.750212 Li
0.874865 0.750120 0.250213 Li
0.874865 0.250119 0.750213 Li
0.874865 0.250119 0.250213 Li
0.374865 0.750120 0.750213 Li
0.374865 0.750120 0.250213 Li
0.374866 0.250119 0.750213 Li
0.374866 0.250119 0.250213 Li
0.874865 0.750120 0.500212 Li
0.874865 0.750120 0.000213 Li
0.874865 0.250119 0.500213 Li
0.874865 0.250119 0.000213 Li
0.374865 0.750120 0.500212 Li
0.374865 0.750120 0.000213 Li
0.374866 0.250119 0.500213 Li
0.374866 0.250119 0.000213 Li
0.874865 0.500120 0.750213 Li
0.874865 0.500120 0.250213 Li
0.874865 0.000120 0.750213 Li
0.874865 0.000120 0.250213 Li
0.374865 0.500120 0.750213 Li
0.374865 0.500120 0.250213 Li
0.374865 0.000120 0.750213 Li
0.374865 0.000120 0.250212 Li
0.874865 0.500120 0.500212 Li
0.874865 0.500120 0.000213 Li
0.874865 0.000120 0.500213 Li
0.874865 0.000120 0.000213 Li
0.374865 0.500120 0.500212 Li
0.374865 0.500120 0.000212 Li
0.374865 0.000120 0.500212 Li
0.374865 0.000120 0.000212 Li
0.624865 0.750120 0.750213 Li
0.624865 0.750120 0.250213 Li
0.624865 0.250119 0.750213 Li
0.624865 0.250119 0.250213 Li
0.124865 0.750120 0.750212 Li
0.124865 0.750120 0.250213 Li
0.124865 0.250119 0.750213 Li
0.124865 0.250119 0.250213 Li
0.624865 0.750120 0.500212 Li
0.624865 0.750120 0.000212 Li
0.624865 0.250119 0.500212 Li
0.624865 0.250119 0.000213 Li
0.124865 0.750120 0.500212 Li
0.124865 0.750120 0.000213 Li
0.124865 0.250119 0.500212 Li
0.124865 0.250119 0.000213 Li
0.624865 0.500120 0.750213 Li
0.624865 0.500120 0.250213 Li
0.624865 0.000120 0.750213 Li
0.624865 0.000120 0.250213 Li
0.124865 0.500120 0.750212 Li
0.124865 0.500120 0.250212 Li
0.124866 0.000120 0.750213 Li
0.124866 0.000120 0.250213 Li
0.624865 0.500120 0.500212 Li
0.624865 0.500120 0.000213 Li
0.624865 0.000120 0.500213 Li
0.624865 0.000120 0.000213 Li
0.124865 0.500120 0.500212 Li
0.124865 0.500120 0.000212 Li
0.124866 0.000120 0.500212 Li
0.124866 0.000120 0.000213 Li
0.874956 0.875089 0.875381 Co
0.874956 0.875089 0.375380 Co
0.874955 0.375090 0.875381 Co
0.874955 0.375090 0.375381 Co
0.374955 0.875089 0.875380 Co
0.374955 0.875089 0.375381 Co
0.374955 0.375090 0.875381 Co
0.374955 0.375090 0.375381 Co
0.874956 0.875089 0.625381 Co
0.874956 0.875089 0.125381 Co
0.874955 0.375090 0.625381 Co
0.874955 0.375090 0.125381 Co
0.374955 0.875089 0.625381 Co
0.374955 0.875089 0.125381 Co
0.374955 0.375090 0.625381 Co
0.374955 0.375090 0.125381 Co
0.874955 0.625089 0.875381 Co
0.874955 0.625089 0.375381 Co
0.874956 0.125089 0.875381 Co
0.874956 0.125089 0.375381 Co
0.374955 0.625089 0.875381 Co
0.374955 0.625089 0.375381 Co
0.374955 0.125089 0.875381 Co
0.374955 0.125089 0.375381 Co
0.874955 0.625089 0.625381 Co
0.874955 0.625089 0.125381 Co
0.874956 0.125089 0.625381 Co
0.874956 0.125089 0.125381 Co
0.374955 0.625089 0.625381 Co
0.374955 0.625089 0.125381 Co
0.374955 0.125089 0.625381 Co
0.374955 0.125089 0.125381 Co
0.624955 0.875089 0.875380 Co
0.624955 0.875089 0.375381 Co
0.624955 0.375090 0.875380 Co
0.624955 0.375090 0.375381 Co
0.124955 0.875089 0.875380 Co
0.124955 0.875089 0.375381 Co
0.124955 0.375090 0.875381 Co
0.124955 0.375090 0.375381 Co
0.624955 0.875089 0.625381 Co
0.624955 0.875089 0.125381 Co
0.624955 0.375090 0.625381 Co
0.624955 0.375090 0.125381 Co
0.124955 0.875089 0.625381 Co
0.124955 0.875089 0.125381 Co
0.124955 0.375090 0.625381 Co
0.124955 0.375090 0.125381 Co
0.624956 0.625089 0.875380 Co
0.624956 0.625089 0.375380 Co
0.624956 0.125089 0.875381 Co
0.624956 0.125089 0.375381 Co
0.124956 0.625089 0.875380 Co
0.124956 0.625089 0.375381 Co
0.124956 0.125089 0.875381 Co
0.124956 0.125089 0.375381 Co
0.624956 0.625089 0.625381 Co
0.624956 0.625089 0.125381 Co
0.624956 0.125089 0.625381 Co
0.624956 0.125089 0.125381 Co
0.124956 0.625089 0.625381 Co
0.124956 0.625089 0.125381 Co
0.124956 0.125089 0.625381 Co
0.124956 0.125089 0.125381 Co
0.999927 0.750078 0.875300 Co
0.999927 0.750078 0.375300 Co
0.999927 0.250078 0.875300 Co
0.999927 0.250078 0.375300 Co
0.499927 0.750078 0.875300 Co
0.499927 0.750078 0.375300 Co
0.499927 0.250078 0.875300 Co
0.499927 0.250078 0.375300 Co
0.999927 0.750078 0.625300 Co
0.999927 0.750078 0.125300 Co
0.999927 0.250078 0.625300 Co
0.999927 0.250078 0.125300 Co
0.499927 0.750078 0.625300 Co
0.499927 0.750078 0.125300 Co
0.499927 0.250078 0.625300 Co
0.499927 0.250078 0.125300 Co
0.999927 0.500078 0.875299 Co
0.999927 0.500078 0.375300 Co
0.999927 0.000078 0.875300 Co
0.999927 0.000078 0.375300 Co
0.499927 0.500078 0.875300 Co
0.499927 0.500078 0.375300 Co
0.499927 0.000078 0.875300 Co
0.499927 0.000078 0.375300 Co
0.999927 0.500078 0.625300 Co
0.999927 0.500078 0.125300 Co
0.999927 0.000078 0.625300 Co
0.999927 0.000078 0.125300 Co
0.499927 0.500078 0.625300 Co
0.499927 0.500078 0.125300 Co
0.499927 0.000078 0.625300 Co
0.499927 0.000078 0.125300 Co
0.749927 0.750078 0.875300 Co
0.749927 0.750078 0.375300 Co
0.749927 0.250078 0.875300 Co
0.749927 0.250078 0.375300 Co
0.249927 0.750078 0.875300 Co
0.249927 0.750078 0.375300 Co
0.249927 0.250078 0.875300 Co
0.249927 0.250078 0.375300 Co
0.749927 0.750078 0.625300 Co
0.749927 0.750078 0.125300 Co
0.749927 0.250078 0.625300 Co
0.749927 0.250078 0.125300 Co
0.249927 0.750078 0.625300 Co
0.249927 0.750078 0.125300 Co
0.249927 0.250078 0.625300 Co
0.249927 0.250078 0.125300 Co
0.749927 0.500078 0.875300 Co
0.749927 0.500078 0.375300 Co
0.749927 0.000078 0.875300 Co
0.749927 0.000078 0.375300 Co
0.249927 0.500078 0.875300 Co
0.249927 0.500078 0.375300 Co
0.249927 0.000078 0.875300 Co
0.249927 0.000078 0.375300 Co
0.749927 0.500078 0.625300 Co
0.749927 0.500078 0.125300 Co
0.749927 0.000078 0.625300 Co
0.749927 0.000078 0.125300 Co
0.249927 0.500078 0.625300 Co
0.249927 0.500078 0.125300 Co
0.249927 0.000078 0.625300 Co
0.249927 0.000078 0.125300 Co
0.999941 0.750018 0.750197 Co
0.999941 0.750018 0.250198 Co
0.999942 0.250018 0.750197 Co
0.999942 0.250018 0.250198 Co
0.499941 0.750018 0.750197 Co
0.499941 0.750018 0.250198 Co
0.499941 0.250018 0.750198 Co
0.499941 0.250018 0.250198 Co
0.999941 0.750018 0.500198 Co
0.999941 0.750018 0.000198 Co
0.999942 0.250018 0.500198 Co
0.999942 0.250018 0.000198 Co
0.499941 0.750018 0.500198 Co
0.499941 0.750018 0.000197 Co
0.499941 0.250018 0.500198 Co
0.499941 0.250018 0.000198 Co
0.999942 0.500018 0.750198 Co
0.999942 0.500018 0.250198 Co
0.999942 0.000018 0.750198 Co
0.999942 0.000018 0.250198 Co
0.499941 0.500018 0.750197 Co
0.499941 0.500018 0.250198 Co
0.499941 0.000018 0.750197 Co
0.499941 0.000018 0.250198 Co
0.999942 0.500018 0.500198 Co
0.999942 0.500018 0.000198 Co
0.999942 0.000018 0.500198 Co
0.999942 0.000018 0.000198 Co
0.499941 0.500018 0.500198 Co
0.499941 0.500018 0.000198 Co
0.499941 0.000018 0.500197 Co
0.499941 0.000018 0.000198 Co
0.749941 0.750018 0.750197 Co
0.749941 0.750018 0.250198 Co
0.749942 0.250018 0.750197 Co
0.749942 0.250018 0.250198 Co
0.249941 0.750018 0.750197 Co
0.249941 0.750018 0.250198 Co
0.249941 0.250018 0.750198 Co
0.249941 0.250018 0.250198 Co
0.749941 0.750018 0.500197 Co
0.749941 0.750018 0.000197 Co
0.749942 0.250018 0.500198 Co
0.749942 0.250018 0.000197 Co
0.249941 0.750018 0.500197 Co
0.249941 0.750018 0.000197 Co
0.249941 0.250018 0.500198 Co
0.249941 0.250018 0.000198 Co
0.749942 0.500018 0.750197 Co
0.749942 0.500018 0.250198 Co
0.749941 0.000018 0.750197 Co
0.749941 0.000018 0.250198 Co
0.249941 0.500018 0.750198 Co
0.249941 0.500018 0.250198 Co
0.249941 0.000018 0.750197 Co
0.249941 0.000018 0.250198 Co
0.749942 0.500018 0.500197 Co
0.749942 0.500018 0.000197 Co
0.749941 0.000018 0.500198 Co
0.749941 0.000018 0.000198 Co
0.249941 0.500018 0.500198 Co
0.249941 0.500018 0.000198 Co
0.249941 0.000018 0.500197 Co
0.249941 0.000018 0.000198 Co
0.999901 0.874920 0.750177 Co
0.999901 0.874920 0.250177 Co
0.999901 0.374920 0.750178 Co
0.999901 0.374920 0.250177 Co
0.499901 0.874920 0.750177 Co
0.499901 0.874920 0.250177 Co
0.499901 0.374920 0.750177 Co
0.499901 0.374920 0.250177 Co
0.999901 0.874920 0.500177 Co
0.999901 0.874920 0.000177 Co
0.999901 0.374920 0.500177 Co
0.999901 0.374920 0.000177 Co
0.499901 0.874920 0.500177 Co
0.499901 0.874920 0.000177 Co
0.499901 0.374920 0.500177 Co
0.499901 0.374920 0.000177 Co
0.999901 0.624920 0.750178 Co
0.999901 0.624920 0.250177 Co
0.999901 0.124920 0.750178 Co
0.999901 0.124920 0.250177 Co
0.499901 0.624920 0.750177 Co
0.499901 0.624920 0.250177 Co
0.499901 0.124920 0.750178 Co
0.499901 0.124920 0.250178 Co
0.999901 0.624920 0.500178 Co
0.999901 0.624920 0.000177 Co
0.999901 0.124920 0.500178 Co
0.999901 0.124920 0.000177 Co
0.499901 0.624920 0.500177 Co
0.499901 0.624920 0.000177 Co
0.499901 0.124920 0.500177 Co
0.499901 0.124920 0.000178 Co
0.749901 0.874920 0.750177 Co
0.749901 0.874920 0.250177 Co
0.749901 0.374920 0.750177 Co
0.749901 0.374920 0.250177 Co
0.249901 0.874920 0.750177 Co
0.249901 0.874920 0.250177 Co
0.249901 0.374920 0.750177 Co
0.249901 0.374920 0.250177 Co
0.749901 0.874920 0.500177 Co
0.749901 0.874920 0.000177 Co
0.749901 0.374920 0.500177 Co
0.749901 0.374920 0.000177 Co
0.249901 0.874920 0.500177 Co
0.249901 0.874920 0.000177 Co
0.249901 0.374920 0.500177 Co
0.249901 0.374920 0.000177 Co
0.749901 0.624920 0.750178 Co
0.749901 0.624920 0.250178 Co
0.749901 0.124920 0.750178 Co
0.749901 0.124920 0.250178 Co
0.249901 0.624920 0.750178 Co
0.249901 0.624920 0.250177 Co
0.249901 0.124920 0.750177 Co
0.249901 0.124920 0.250177 Co
0.749901 0.624920 0.500178 Co
0.749901 0.624920 0.000178 Co
0.749901 0.124920 0.500178 Co
0.749901 0.124920 0.000177 Co
0.249901 0.624920 0.500178 Co
0.249901 0.624920 0.000177 Co
0.249901 0.124920 0.500178 Co
0.249901 0.124920 0.000178 Co
